#
# CELL written by cell_write: Keith Refson, Oct 2006
#
%BLOCK lattice_cart
   ANG
       4.87768419400000        0.00000000000000        0.00000000000000
       0.298672016771687E-15    4.87768419400000        0.00000000000000
       0.196381697131324E-14   0.196381697131324E-14    32.0715650043837
%ENDBLOCK lattice_cart

%BLOCK positions_frac
H              0.000000000000000       0.000000000000000       0.355055889285527
Fe             0.000000000000000       0.000000000000000       0.000000000000000 spin = 2
Fe             0.500000000000000       0.000000000000000       0.000000000000000 spin = 2
Fe             0.000000000000000       0.500000000000000       0.000000000000000 spin = 2 
Fe             0.500000000000000       0.500000000000000       0.000000000000000 spin = 2 
Fe             0.250000000000000       0.250000000000000       0.053770662145886 spin = 2 
Fe             0.250000000000000       0.750000000000000       0.053770662145886 spin = 2 
Fe             0.750000000000000       0.250000000000000       0.053770662145886 spin = 2 
Fe             0.750000000000000       0.750000000000000       0.053770662145886 spin = 2 
Fe             0.000000000000000       0.000000000000000       0.107541324291772 spin = 2 
Fe             0.500000000000000       0.000000000000000       0.107541324291772 spin = 2 
Fe             0.000000000000000       0.500000000000000       0.107541324291772 spin = 2 
Fe             0.500000000000000       0.500000000000000       0.107541324291772 spin = 2 
Fe             0.250000393684731       0.250000399013735       0.161898747374369 spin = 2 
Fe             0.249999862728121       0.749999001957519       0.161898678058496 spin = 2 
Fe             0.750000300918563       0.249999828431203       0.161899189175535 spin = 2 
Fe             0.750000903888768       0.749998676098775       0.161899093794386 spin = 2 
Fe             0.000004994251133      -0.000002794627370       0.214565149002830 spin = 2 
Fe             0.499995168235673      -0.000003923924529       0.214565527379795 spin = 2 
Fe             0.000003781022335       0.500001956051879       0.214565429960843 spin = 2 
Fe             0.499997687405992       0.500001372392839       0.214565090001557 spin = 2 
Fe             0.250004049649264       0.250011237702968       0.270583513204653 spin = 2 
Fe             0.250001227256904       0.749988788529854       0.270586202813046 spin = 2 
Fe             0.749996653718457       0.250013086927116       0.270580634862318 spin = 2 
Fe             0.749996072133631       0.749987225935588       0.270582261993239 spin = 2 
Fe             0.000006480032643      -0.000003297899077       0.320742819607876 spin = 2 
Fe             0.499992581916072      -0.000004243699951       0.320747355659086 spin = 2 
Fe             0.000006124461675       0.500004755044288       0.320757033879258 spin = 2 
Fe             0.499994442170759       0.500003916961768       0.320757594211693 spin = 2 
%ENDBLOCK positions_frac

kpoints_mp_spacing 0.04


