
kpoints_mp_spacing : 0.03

symmetry_generate : FALSE

FIX_ALL_CELL : TRUE
#FIX_ALL_CELL : FALSE


%block LATTICE_ABC 
3.129600   3.129600  24.120800
90.000000  90.000000 120.000000
%endblock LATTICE_ABC

%BLOCK POSITIONS_FRAC
Nb           0.336333   0.660667   0.055300
Nb           0.664667   0.334333   0.944700
Nb           0.668667   0.335333   0.555300
Nb           0.331333   0.662667   0.444700
Nb          -0.005300   0.006000   0.157400
Nb          -0.002000  -0.007000   0.842600
Nb           0.006000   0.002000   0.657400
Nb           0.002700   0.004000   0.342600
Al           0.330333   0.660667   0.257000
Al           0.659667   0.339333   0.751000
C            0.004000   0.004000   1.005000
C            0.008000   0.006000   0.503000
C            0.665667   0.327333   0.108600
C            0.334333   0.669667   0.891400
C            0.337333   0.662667   0.608600
C            0.668667   0.330333   0.391400
%ENDBLOCK POSITIONS_FRAC
