%BLOCK lattice_abc
20.5210   20.9480    20
  90.0  97.8250 90.0
%ENDBLOCK lattice_abc

%BLOCK POSITIONS_abs
      N      13.6413   7.9432   1.1224  
      C      13.6897   6.5397   1.1446 
      N      12.5677   5.8768   0.6823  
      C      11.4916   6.5921   0.2113
      C      11.4912   7.9603   0.2295  
      C      12.5841   8.7521   0.6716   
      N      10.2570   8.3081  -0.2887  
      C       9.6323   7.1556  -0.5787   
      H       8.7588   7.1182  -0.9555   
      N      10.3498   6.0599  -0.2893   
      C      14.8655   8.6280   1.5800  
      H      15.2051   8.1870   2.3854 
      H      14.6586   9.5652   1.7825  
      H      15.5446   8.5891   0.8741  
      O      14.6666   5.9438   1.5605   
      C      12.5670   4.4052   0.6655 
      H      13.1276   4.0868  -0.0720 
      H      11.6528   4.0793   0.5424   
      H      12.9223   4.0674   1.5147  
      O      12.6570   9.9770   0.6917 
      C       9.6958   9.6549  -0.4219 
      H      10.1314  10.1198  -1.1661   
      H       9.8471  10.1542   0.4078  
      H      8.7350   9.5921  -0.5962  
%ENDBLOCK POSITIONS_abs

symmetry_generate

kpoint_mp_spacing 0.04
