%block lattice_cart
14 0 0
0 14 0
0 0 14
%endblock lattice_cart

%block positions_abs
C     -0.33160   -6.46582   -0.86703
C      0.68325   -5.39375   -1.30691
C      0.58372   -4.09773   -0.55870
C      0.61920   -2.68974    1.18678
C      0.29812   -2.80644   -0.97674
C      0.30930    6.40091   -1.16426
C     -0.79941    5.34950   -1.36096
C     -0.60130    4.08425   -0.58053
C     -0.36515    2.75418    1.21067
C     -0.40947    2.77014   -0.97944
C     -2.82487   -0.07719   -0.33258
C     -3.77241   -0.69405   -1.37729
C     -3.06679   -0.35715   -2.71519
C     -1.61133   -0.23143   -2.30504
C      0.81296    0.03680   -2.74149
C      2.01742    0.13787   -3.65572
C      3.19402    0.36718   -2.69043
C      2.54436    0.34310   -1.32491
C      2.73313    0.45083    1.16116
C      3.56625    0.64514    2.40930
C      2.53847    0.55447    3.55128
C      1.22868    0.27805    2.83880
C     -1.20672   -0.18573    2.79452
C     -2.55254   -0.48463    3.42970
C     -3.52525   -0.39031    2.22731
C     -2.61665   -0.73342    1.03288
C     -0.48490   -0.15946   -3.18186
C      3.26320    0.48972   -0.13141
C      0.01374    0.09887    3.48241
Co     0.01479    0.00525    0.13032 spin = 1.5 
H     -0.20028   -6.75712    0.19533
H      1.71777   -5.79095   -1.20581
H      0.55498   -5.16644   -2.38397
H      1.00949   -4.75528    1.44378
H      0.71521   -2.33385    2.21727
H      0.08004   -2.46098   -1.99074
H     -1.78629    5.78880   -1.09431
H     -0.87531    5.07183   -2.43112
H     -0.67366    4.83742    1.43203
H     -0.30388    2.44287    2.25828
H     -0.37380    2.37521   -1.99830
H     -0.65769   -0.25294   -4.26261
H      4.34683    0.65038   -0.22127
H     -0.00772    0.16194    4.57907
H     -1.37444   -6.11567   -0.99823
H     -0.20241   -7.38382   -1.47200
H      0.38096    6.74237   -0.11127
H      0.09936    7.29599   -1.78094
H      1.30039    6.00595   -1.46273
H     -4.80275   -0.29776   -1.31655
H     -3.82151   -1.79409   -1.23886
H     -3.21566   -1.11426   -3.51039
H     -3.41032    0.61404   -3.13622
H      2.12750   -0.78900   -4.25508
H      1.88488    0.96213   -4.38580
H      3.97982   -0.41360   -2.75970
H      3.71143    1.33594   -2.85289
H      4.35632   -0.13272    2.47066
H      4.09923    1.61767    2.37341
H      2.46805    1.49106    4.14223
H      2.76512   -0.25009    4.27987
H     -2.78946    0.20768    4.26177
H     -2.52905   -1.50711    3.86899
H     -3.90685    0.64700    2.12572
H     -4.39687   -1.06436    2.31776
H     -2.55850   -1.83791    0.88206
H     -3.06665    1.00013   -0.16794
N      0.77712   -3.98489    0.81131
N      0.32895   -1.94647    0.11209
N     -0.56514    4.03491    0.80639
N     -0.26338    1.96012    0.13850
N     -1.50168   -0.14169   -0.99794
N      1.20115    0.16555   -1.41473
N      1.42401    0.23514    1.46643
N     -1.28145   -0.26995    1.48384
%endblock positions_abs

kpoints_mp_spacing 0.04
