%block lattice_abc
  10.0 10.0 10.0
  90      90      90
%endblock lattice_abc

%block positions_frac
O 0.0 0.0 0.0
%endblock positions_frac

symmetry_generate

kpoints_mp_spacing 0.04

