%BLOCK LATTICE_CART
ang    # angstrom units
   3.094884100000000   0.000000000000000   0.000000000000000
  -1.547442050000000   2.680248252368539   0.000000000000000
   0.000000000000000   0.000000000000000  30.184531249999999
%ENDBLOCK LATTICE_CART

%BLOCK POSITIONS_ABS
ang    # angstrom units
Si   0.000000000000000   1.786832168245692  12.648501947812500 
Si   1.547442050000000   0.893416084122846   5.056236322812500 
Si   1.547442050000000   0.893416084122846  10.123020833333332 
Si   0.000000000000000   1.786832168245692   2.530755208333333 
Si   0.000000000000000   0.000000000000000   7.588059509843749 
Si   0.000000000000000   0.000000000000000  15.180325134843750 
C    0.000000000000000   0.000000000000000  13.276625267500002 
C    0.000000000000000   0.000000000000000   5.684359642500000 
C    0.000000000000000   1.786832168245692  10.750708863125000 
C    1.547442050000000   0.893416084122846   3.158443238125000 
C    1.547442050000000   0.893416084122846   8.222818469687500 
C    0.000000000000000   1.786832168245692   0.630552844687500 
%ENDBLOCK POSITIONS_ABS

kpoints_mp_spacing 0.04

