%BLOCK lattice_abc
6.43 6.43 6.63
73.8 106.18 145.96
%ENDBLOCK lattice_abc


%BLOCK positions_frac
  Ti 0.195286  0.804714  0.283762 
  Ti 0.900071  0.099929  0.289602  
  Ti 0.804714  0.195286  0.716238  
  Ti 0.099929  0.900071  0.710398 
  O  0.941648  0.058352  0.630021 
  O  0.361932  0.638068  0.293397 
  O  0.867189  0.132811  0.995291 
  O  0.058352  0.941648  0.369979
  O  0.263489  0.736511  0.652500 
  O  0.132811  0.867189  0.004709
  O  0.736511  0.263489  0.347500 
  O  0.638068  0.361932  0.706603 
%ENDBLOCK positions_frac

%block species_pot
O 2|3|15|18|20|20:21(qc=7)
Ti 3|3.5|9|10|11|30U:40:31:32(qc=5.5)
%endblock species_pot

kpoints_mp_spacing 0.04

symmetry_generate

