%block lattice_cart
21.0785   0.0      0.0
10.5393   10.5393  29.80950057
10.5393  -10.5393  29.80950057
%endblock lattice_cart

%block positions_abs
C      2.99556012     3.12273469    -8.66372334
C     -8.30806934    -6.18512616     4.60924336
C     -6.93358526    -6.08075516     4.64392752
C      0.40727431     3.15315631    -9.08422332
C     -4.98544401    -7.12887799     5.92278720
C     -0.14910979    -0.16229013     8.89135074
C     -2.13717959    -0.76956429     8.29328607
C     -1.31782185    -1.75367248     7.93848487
C     -2.03055191     1.39008157     9.57369108
C      1.24393582    -2.15172405     7.90296236
C     -5.53857829     0.37397907   -10.60898786
C      5.77517821    -8.22824666     3.55333774
C      6.07906684    -9.15418078     2.65086711
C      4.68816146    -8.09071645     5.84960345
C      5.48781127     9.43450003     2.33920067
C      1.77476879    -2.30135459     3.07105639
C      3.39503040    -1.58801308     4.40654458
C      3.90395964    -2.64852941     3.67888437
C      1.38195053    -0.12222495     4.33057691
C      2.90033853    -4.34484780     2.11206583
C     -0.30813070     8.39641108     1.67929200
C      1.60569790     8.43978633     2.77927528
C      1.19816047     9.72758537     2.65650155
C      0.58687578     6.14368795     2.48198856
C     -0.71966417   -10.07830406     1.62267165
C      5.08175468    -2.18820833     8.62509505
C     -3.93931353     6.98353585    -5.42104769
C     -4.42816886     7.74306098    -4.41923005
C      6.35017900    -3.57038216     6.93856625
C      4.25219456    -1.16728628    10.77287293
C     -8.02884168    -3.06305350    -1.63089366
C     -7.28071090    -3.17029982    -3.74598546
C     -8.62450384    -2.86481012    -3.67503095
C     -5.58791319    -3.75638943    -2.02604661
C    -10.50421669    -2.53042927    -2.08666165
C      4.20950232     6.31260267    -6.46794679
C     -5.05469069    -2.77899689     7.51205502
C     -4.27266851    -3.71829919     8.06999518
C     -7.45842436    -2.37766341     6.98123588
C      5.93309825     4.70407187    -5.46720486
C     -7.64411415    -7.57105500    -2.74206869   
C      2.48923130     2.90155181     9.93137649
C      3.84578360     2.91009764    10.12379419
C      0.47913816     3.03658036    11.47189585
C     -5.10067410    -7.89167102    -2.89569135
C     -8.00605799     3.02081902    -2.32713997
C     -8.55116349     4.90770603    -3.30277665
C     -8.60464068     3.97012956    -4.21686695
C     -7.84662825     5.11700381    -0.88962034
C     -8.43532035     1.41362316    -4.34203039
C     -3.99098024     2.18163205     3.12607452
C     -5.20069376     0.43271210     2.62556882
C     -5.97031876     1.52370605     2.40188121
C     -3.02974401    -0.20011729     3.70192613
C     -5.80682803     4.06317321     2.53624444
C     -3.47757638     1.55599673    -4.81812845
C     -2.64082941     0.44217570    -6.48468074
C     -1.90419134     1.55930740    -6.33391953
C     -4.36653011    -0.82514211    -5.27787977
C     -1.66341355     3.45880840    -4.74635403
C     -1.40223036    -5.38401622    -1.70461796
C     -0.27409100    -7.24727294    -1.45285584
C     -0.62642909    -6.88580251    -0.22769542
C     -0.47996466    -6.29246676    -3.82318467
C     -1.84195132    -4.96623528     0.78066524
C      4.58953193    -6.05495564    -3.88141683
C      3.63164664    -7.85165468    -3.01677134
C      3.62373486    -6.83019146    -2.13921674
C      4.35499589    -8.13360705    -5.35686289
C      4.65131659    -4.59608391    -1.71226993
C     -0.20937462    -8.39870574     5.46670109
C     -0.40156060    -7.35618399     7.35415207
C     -0.02748896    -6.45190496     6.41399620
C      9.51951487     0.65512729    -7.58409773
C      0.80943901    -6.51598689     4.07495304
C     -2.23801527     5.17420423     6.62602484
C     -3.80013611     6.23579740     5.51462063
C     -2.79684196     7.05977808     5.65198846
C     -4.43385810     4.02173878     6.36084983
C     -0.57532298     7.11360116     6.79204724
C      0.82798006     1.43120451    -0.38283347
C     -1.32851245     1.75676439     0.14766524
C     -0.50197302     2.38103777     1.02823337
C     -1.03576770     0.47874627    -1.95356967
C      1.92199297     2.88056484     1.34103461
C      9.01576292     7.98460595    -0.39850920
C      9.24018252     6.54903217     1.22013153
C      9.14485542     5.88041459     0.04892083
C     -0.91688739    -1.55534562   -12.95505805
C      8.94839641     6.49038095    -2.46010279
C     -7.07101847     9.55403714     0.27198046
C     -5.13714496    10.37614386     0.80174899
C     -5.97985239    -9.76433352     1.06788087
C     -4.95569195     8.00685951     0.01928529
C     -8.52571980    -9.50279221     0.85632246
C      2.66082044     7.11363912    -1.77465516
C      0.56631066     7.70198186    -1.74286665
C      0.63206986     6.49236808    -2.34885343
C      2.31301890     9.51223337    -0.99524915
C      2.26238145     4.79812000    -2.80202706
C      4.57916190     6.07521836     6.05430666
C      4.23875541     3.91075431     5.83354143
C      5.51384870     4.15042809     5.56052795
C      2.19624270     5.29698596     6.40852059
C      7.00623334     6.09835954     5.26785502
C      0.54671044    -9.09516265    -6.62570111
C     -1.56791447    -9.11755968    -6.44669661
C     -1.10974652   -10.15245451    -5.71601982
C     -0.66182273    -7.21131742    -7.92924287
C      1.21649505     9.99136658    -5.11243019
C      1.14536285    -1.11910000    -8.23450793
C      1.84351507    -2.81031505    -9.37995365
C      0.85594374    -3.27818283    -8.62795148
C      3.12514590    -0.68315918    -9.84324547
C     -0.34792168    -2.39746716    -6.68241707
C      4.53905868    -0.52085076    -3.90878761
C      6.70030100    -0.43223758    -4.11514537
C      6.16175359    -1.14205307    -5.13070464
C      5.89638201     0.63823319    -2.07586705
C      3.90495665    -2.09879060    -5.74963244
H      3.17032615     2.54650175    -7.71182906
H     -8.95964568    -5.76673259     3.85836771
H     -6.38495918    -5.51126604     3.91449812
H     -0.09568742     2.71153769    -9.98579236
H      0.35995306     2.47270318    -8.26288543
H     -0.14434827     4.04652378    -8.90387094
H     -4.55493750    -6.19783859     6.21987543
H     -4.49554987    -7.32647482     4.95160447
H      5.67046961     2.58389019    -8.27263774   
H      0.76010585     0.22022106     9.37340033
H     -3.16514979    -0.61244863     8.04782637
H     -1.55777764    -2.55019388     7.32661732
H     -1.33547255     1.69995338    10.35018414
H     -2.29740098     2.15927983     8.86177725
H     -2.93135243     1.01921284    10.15660526
H      1.88476426    -2.46174346     8.75205827
H      1.72958660    -1.64184480     7.10442249
H      0.85535576    -3.03004444     7.48676787
H     -6.14290296    -0.38618400   -10.17631289
H      5.99959714    -7.16100589     3.56252913
H      6.55075657    -9.01391725     1.68302566
H     -5.02989480     2.93858301    -8.50003595
H      4.01151213    -7.31132026     5.62043677
H     -6.27927555     1.75702284    -8.34038956
H      6.18952921     8.77753367     2.69878693
H      5.78816055     9.63845922     1.30858678
H      4.47544778     9.03125100     2.37102627
H      0.88868074    -2.21502071     2.45965567
H      4.05683461    -0.86365236     4.94567602
H      4.83954570    -3.13976622     3.77912982
H      0.58934223     0.06451268     3.52997130
H      1.11122886    -0.13042260     5.37170418
H      2.06971454     0.66794757     4.22749243
H      3.88477220    -4.77689573     2.22714473
H      2.69240662    -4.03652233     1.06806701
H      2.21392754    -5.03422193     2.52476248
H     -1.25054696     7.99470732     1.19133594
H      2.50546696     8.03076414     3.23304666
H      1.73314092   -10.51663822     2.95073057
H     -0.44814359     5.95968657     2.70815847
H      0.83202094     5.55316487     1.65379627
H      1.12783158     5.81313831     3.42830425
H     -1.72724715   -10.23756713     1.11781802
H     -0.06406382    -9.53021475     0.94086507
H     -0.98410653    -9.48498151     2.46427356
H      4.38825611    -1.67449348     7.93303046
H     -3.07435070     6.30542918    -5.43948662
H     -4.11817619     7.73572336    -3.38752566
H      5.63449489    -4.16546651     6.41564126
H      6.53424933    -2.73422347     6.36702137
H     -3.26155141     6.43888132    -7.74109564
H      4.74769996    -0.23603180    10.89892353
H     -6.46628663     8.97045179    -3.10901139
H      3.40212350    -1.01562444    10.17199779
H     -8.12583707    -3.32152854    -0.54631291
H     -6.77298070    -3.09986476    -4.70218559
H     -9.17756976    -2.67548474    -4.52552785
H     -5.65282795    -4.09799334    -1.03656534
H     -5.12531940    -4.44916576    -2.67838884
H     -4.92407016    -2.86817222    -2.07346765
H     10.39670733    -1.56552780    -1.48124756
H     10.08356276    -3.29232529    -1.58176711
H     10.05274551    -2.49512215    -3.00818072
H      3.39677432     5.64906324    -6.18956387
H     -4.74468868    -1.96514821     6.94511483
H     -3.19921905    -3.75006695     8.15247077
H     -7.64897177    -1.42353576     7.28428069
H     -6.98664157    -2.25419378     5.96711034
H      2.23849728     7.50464560    -7.80052204
H      5.33824968     3.86976087    -5.72996472
H      5.86295431     4.84709610    -4.38913362
H      6.93144168     4.43369968    -5.75877002
H     -7.83160141    -7.73993913    -1.69457326
H      2.00771270     2.90885608     8.93441216
H      4.66209343     3.12015476     9.37167899
H    -10.30902482    -6.79381105    -2.63565191
H      0.03767927     3.64485574    10.62491356
H      0.06115113     2.06682621    11.67648366
H     -4.91826753    -8.42076624    -1.90802860
H     -4.52661113    -6.94371883    -2.82260875
H     -4.55711617    -8.45651191    -3.65093456
H     -7.75418483     2.29031304    -1.58900269
H     -8.90364997     5.94798792    -3.54396357
H     -9.02676551     4.06391707    -5.21032878
H     -8.63097175     4.81039309    -0.13111774
H     -6.82058848     4.87782852    -0.60342940
H     -7.69684579     6.17579727    -1.01588552
H     -8.19879337     1.65315561    -5.37614954
H     -9.40934203     1.00687998    -4.11957590
H     -7.73556886     0.66908541    -3.93621046
H     -3.26508814     2.90218449     3.63113418
H     -5.53503298    -0.60670614     2.58159399
H     -7.04003978     1.57110411     1.95799384
H     -3.37633099    -1.11585411     3.15212318
H     -2.03509334     0.16831416     3.52233162
H     -3.33506605    -0.23762291     4.74870649
H     -4.88651166     4.77743753     2.57176136
H     -6.52383810     4.29554239     3.41656755
H     -6.36519535     4.22675894     1.60184049
H     -4.12731719     1.82538537    -4.02568286
H     -2.48652769    -0.48210315    -7.16662656
H     -1.04330245     1.73281814    -6.96217071
H     -5.51105532    -0.68682848    -5.00192368
H     -4.26406444    -1.54331611    -6.15888615
H     -4.02360991    -1.22220830    -4.30319850
H     -0.93983885     3.88187368    -5.32015071
H     -1.20307505     3.18097173    -3.84634023
H     -2.38491067     4.23552087    -4.38103299
H     -1.71278227    -4.40702406    -2.03874351
H      0.39177807    -8.09413551    -1.60117176
H     -0.27954667    -7.28749003     0.76523178
H     -0.28292209    -5.28968064    -4.11393222
H      0.35091688    -6.88108020    -4.03666582
H     -1.36305958    -6.60163458    -4.37769312
H     -1.01792780    -4.65966543     1.32465792
H     -2.59797586    -5.57483498     1.30204835
H     -2.23560820    -4.00760087     0.38737490
H      5.06542232    -5.36535291    -4.54830236
H      3.22334669    -8.88214689    -2.95970652
H      3.19979828    -6.88746716    -1.14551947
H     -5.24456561     2.57500740     9.27844231
H      4.25183943    -9.18247144    -5.10214371
H      3.64443451    -7.85483534    -6.21619152
H      4.65273353    -3.73547387    -2.37231247
H      5.68795531    -4.49823322    -1.22170484
H      3.84716421    -4.44783121    -0.96211142
H     -0.18586691    -9.15490567     4.79884911
H     -0.50712620    -6.98186040     8.29031462
H      0.12155638    -5.42897829     6.66832124
H      8.78601889     0.76590866    -6.88425233
H     -1.17119153    10.38902984     6.56894941
H     10.36942635     0.29895628    -7.03672498
H      1.64140603    -7.06555158     4.00183935
H      1.07319816    -5.46908671     4.28419217
H      0.24758368    -6.69883239     3.20742564
H     -1.57920626     4.34059542     7.12758038
H     -4.76015086     6.58952058     5.11825550
H     -2.83911502     8.09087274     5.37419013
H     -3.85147081     3.15036630     6.58423844
H     -4.95383078     4.31041264     7.21722799
H     -5.09138675     3.86728895     5.48573459
H      0.12292057     7.21383948     5.92490929
H     -0.11280884     6.62852920     7.65541191
H     -0.94988978     8.05656046     7.31817211
H      1.70734303     1.07889745    -0.94311952
H     -2.44609695     1.82527714    -0.00578156
H     -0.96329254     3.04402808     1.75394093
H     -0.85923752    -0.48171311    -1.61812819
H     -2.09597506     0.75779402    -2.13983845
H     -0.44004600     0.86478170    -2.82993638
H      2.83216286     2.21802114     1.52643652
H      1.48404183     3.46726110     2.08452937
H      2.24399128     3.52685625     0.59375741
H      8.97433569     8.92148835    -0.89380171
H      9.22325205     6.14664834     2.26059474
H      9.33113560     4.79433973    -0.01288870
H     -1.77202937    -0.76982256   -12.76449020
H     -0.59687639    -2.09820372   -12.04127931
H     -0.10077269    -1.08915437   -13.45864115
H      9.21483593     7.44223558    -2.91283205
H      7.93269398     6.12665913    -2.68769471
H      9.55382636     5.70819041    -2.85291013
H     -7.80725327     8.68106021     0.10238981
H     -4.11177823    10.52599009     0.77916942
H     -5.72154463    -8.83116037     1.48778362
H     -3.88802841     8.20242779    -0.30329406
H     -4.78211173     7.43098011     0.90645860
H     -5.40338648     7.31387532    -0.80006516
H      1.31186952     0.28291001   -13.75699694
H     -8.76508552    -9.10364084    -0.17130639
H     -8.51622962    -8.74921032     1.66264050
H      3.74640549     7.21023165    -1.74646473
H     -0.26459811     8.47628342    -1.71938931
H     -0.08563668     5.92693089    -2.86846726
H      1.51166395     9.78065211    -0.40004331
H      3.23871741     9.39261250    -0.50362626
H      2.40967789    10.33137352    -1.77157056
H      1.34538587     4.43327479    -3.14580562
H      2.82713293     4.06851286    -2.22060211
H      2.82595901     5.03476120    -3.66684116
H      4.43593708     7.13188222     6.10581618
H      3.78331280     2.97270572     5.75632619
H      6.21624331     3.37291536     5.38552678
H      1.90596007     5.97290446     5.63058711
H      1.68337727     4.28877867     6.48201910
H      2.29306108     5.76886141     7.41403993
H      7.03765605     6.25796964     4.23705179
H      7.85188610     5.45497357     5.46184653
H     -3.41681751    -3.49149050    -8.99932125
H      1.58169768    -8.91963154    -6.94576973
H     -2.62845906    -8.91339657    -6.44263528
H     -1.68569140    10.39054910    -5.08380874
H     -1.38208768    -7.36861895    -8.70311875
H     -0.94378131    -6.26774694    -7.36894604
H      0.32431537    -7.07623975    -8.50775343
H      0.51874218     9.42921897    -4.51589512
H      1.71360181    10.51597045    -4.27293678
H      1.87713502     9.38960335    -5.75298542
H      0.94366306    -0.16476556    -7.82416038
H      2.34069740    -3.40366683   -10.08041995
H      0.51054839    -4.30742157    -8.63672771
H      3.97134505    -0.26693832    -9.28522991
H      3.58612234    -1.31210338   -10.58099904
H      2.57499704     0.13861082   -10.35676086
H     -0.07546619    -1.72783191    -5.89927417
H     -0.22287225    -3.37362115    -6.24340572
H     -1.44723610    -2.33805409    -6.90748653
H      3.53398531    -0.60903225    -3.43293671
H      7.79664740    -0.46702295    -3.95364602
H      6.68569192    -1.77659144    -5.80194914
H      6.86624288     0.32971967    -1.65893559
H      5.91189668     1.66593884    -2.29627606
H      5.10443893     0.33348257    -1.35177236
H      3.71316683    -1.72206529    -6.77773505
H      2.93033031    -2.14508655    -5.24715081
H      4.17545632    -3.14778332    -5.91498231
N      4.12054465     3.66423850    -9.21467733 
N      1.83756239     3.60591737    -9.26150509
N     -0.03340509    -1.32426937     8.29137544
N     -1.40989036     0.26919954     8.83713536
N      5.52544683   -10.36161737     3.08125747
N      5.13002149    -8.84250506     4.62267786
N      2.89186275    -3.12976057     2.90227208
N      2.05713827    -1.35287637     3.99713033
N     -0.01231095     9.72857002     1.98862804
N      0.61640249     7.64310642     2.26240006
N     -5.41874029     8.55766470    -4.97578640
N      5.89424189    -3.16662901     8.33883875
N     -9.10335531    -2.83823284    -2.41401646
N     -6.94421487    -3.33964267    -2.41267559
N      5.44894072     5.87903162    -6.23137810
N     -6.33806302    -3.11795954     7.67309284
N     -6.46279342    -7.65734367    -3.39896164   
N      1.94411828     3.01460942    11.18016926
N     -8.28582627     2.77116535    -3.60715114
N     -8.07664464     4.36613786    -2.10290248
N     -5.24007438     2.61436387     2.68195006
N     -3.99294365     0.82154646     3.12482536
N     -2.41917957     2.26168328    -5.28836748
N     -3.72593308     0.51343712    -5.63314902
N     -1.33904125    -5.69257152    -0.36392574
N     -0.70502392    -6.33373255    -2.36969546
N      4.31470985    -5.73838637    -2.56413692
N      4.15644091    -7.26841668    -4.14945191
N      0.21772723    -7.13221425     5.25962912
N     -0.47246067    -8.62650527     6.78367797
N     -1.80688336     6.40149665     6.35492980
N     -3.43580119     5.07008693     6.04652576
N      0.81752706     2.12053754     0.76784627
N     -0.47102620     1.12896426    -0.72927445
N      8.94483050     6.79088786    -0.97919400
N      9.18615824     7.95031232     0.92378526
N     -7.26050271   -10.25749960     0.73426906
N     -5.73076637     9.24006473     0.27681993
N      1.93681495     6.05810279    -2.17555589
N      1.89699185     8.14665689    -1.48485640
N      5.74379374     5.46527325     5.71301123
N      3.65205410     5.14184550     6.19722337
N      0.27303798   -10.17588208    -5.88588056
N     -0.52904517    -8.37010296    -6.95767949
N      0.46049274    -2.23040550    -7.89324342
N      2.18401558    -1.51443061    -9.00712045
N      4.82582967    -1.29265215    -4.91137081
N      5.65193519     0.00787099    -3.36391574
Cl      4.01344478     0.83204366     7.5375228	     
Cl     -3.57088177    -4.31105388    -5.4258769
Cl      1.85009654    -5.57315949    -6.4277567  
Cl     -8.15118428     6.43667935     2.1331935	   
Cl     -3.30086594   -10.10949092     4.4505675
Cl     -1.49031493     0.34616451    -9.8707322
Cl     -6.05451898     0.98524755     6.1392239
Cl      5.87581658     8.57005304    -3.7019035
Cl     -0.42775180     3.04646424     4.4422068
Cl     -2.36085636     5.16122216    -0.1309501
Cl      1.81285099     1.09568772    -5.5175259
Cl      8.27960307    -5.10043655    -4.8876977
Cl      4.90431750     5.98250961     1.5275185
Cl      8.78575082     2.46016714    -3.9335363
Cl      1.18424834    -0.79704088    12.7035111
Cl      2.67297152    -1.70227290    -0.8238816
Cl     -8.04154786    -1.25021698    -8.0024747
Cl      0.40621553     6.31411466    -5.9312143
Cl     -7.69869965    -5.67538657     0.9903229
Cl      2.80402706    -8.06106983     1.3641995
Cl     -1.60276338    -3.62800798     4.2167388
Cl     -5.43169904     0.07310535    -1.7213577
Cl      2.96820466    -4.99484020     6.5866754
Cl     -2.07474308    -9.98615978    -2.2290300
%endblock positions_abs

kpoint_mp_grid 1 1 1

FIX_ALL_CELL true
