%block lattice_abc
  3.50803634  3.50803634  25.50803634
  90 90 90
%endblock lattice_abc

%block positions_frac
  Ni 0.000000  0.000000  0.000000  spin = 1
  Ni 0.000000  1.75401817  1.75401817 spin = 1
  Ni 1.75401817  0.000000  1.75401817   spin = 1
  Ni 1.75401817  1.75401817  0.000000  spin = 1
%endblock positions_frac

kpoints_mp_spacing 0.04


