%BLOCK lattice_cart
  4.8284510000000003   0.0000000000000078   0.0000000000000078
  0.0000000000000000   5.2341139999999999   0.0000000000000085
  0.0000000000000000   0.0000000000000000   4.3767360000000002
%ENDBLOCK lattice_cart

%BLOCK positions_frac
Li         0.0152720000000000   0.0000000000000000   0.0000000000000000
Li         0.3327940000000000   0.0000000000000000   0.5000000000000000
Li         0.8116020000000000   0.2646980000000000   0.5000000000000000
Li         0.8116020000000000   0.7353010000000000   0.5000000000000000
Cu         0.5184690000000000   0.2486380000000000   0.0000000000000000
Cu         0.0173060000000000   0.4999990000000000   0.0000000000000000
Cu         0.5184690000000000   0.7513630000000000   0.0000000000000000
Cu         0.3078250000000000   0.4999990000000000   0.5000000000000000
%ENDBLOCK positions_frac


kpoints_mp_grid 3 3 3
