%BLOCK LATTICE_CART
ang    # angstrom units
  14.279772749999999   0.000000000000000   0.000000000000000
   7.139886375000000  12.366645961768771   0.000000000000000
   7.139886375000000   4.122215320589591  11.659385626799912
%ENDBLOCK LATTICE_CART

%BLOCK POSITIONS_FRAC
Al   0.000000000000000   0.000000000000000   0.000000000000000 
Al   0.400000000000000   0.800000000000000   0.000000000000000 
Al   0.600000000000000   0.200000000000000   0.000000000000000 
Al   0.600000000000000   0.600000000000000   0.600000000000000 
Al   0.000000000000000   0.000000000000000   0.600000000000000 
Al   0.400000000000000   0.600000000000000   0.400000000000000 
Al   0.400000000000000   0.200000000000000   0.000000000000000 
Al   0.800000000000000   0.000000000000000   0.600000000000000 
Al   0.200000000000000   0.600000000000000   0.400000000000000 
Al   0.400000000000000   0.000000000000000   0.400000000000000 
Al   0.800000000000000   0.800000000000000   0.400000000000000 
Al   0.200000000000000   0.200000000000000   0.000000000000000 
Al   0.800000000000000   0.400000000000000   0.000000000000000 
Al   0.600000000000000   0.200000000000000   0.200000000000000 
Al   0.800000000000000   0.000000000000000   0.800000000000000 
Al   0.000000000000000   0.600000000000000   0.400000000000000 
Al   0.800000000000000   0.400000000000000   0.600000000000000 
Al   0.000000000000000   0.200000000000000   0.000000000000000 
Al   0.800000000000000   0.000000000000000   0.200000000000000 
Al   0.600000000000000   0.800000000000000   0.400000000000000 
Al   0.600000000000000   0.200000000000000   0.400000000000000 
Al   0.000000000000000   0.200000000000000   0.600000000000000 
Al   0.400000000000000   0.800000000000000   0.400000000000000 
Al   0.600000000000000   0.400000000000000   0.800000000000000 
Al   0.400000000000000   0.400000000000000   0.000000000000000 
Al   0.600000000000000   0.800000000000000   0.600000000000000 
Al   0.600000000000000   0.000000000000000   0.200000000000000 
Al   0.200000000000000   0.800000000000000   0.400000000000000 
Al   0.600000000000000   0.200000000000000   0.600000000000000 
Al   0.200000000000000   0.400000000000000   0.000000000000000 
Al   0.800000000000000   0.600000000000000   0.000000000000000 
Al   0.400000000000000   0.000000000000000   0.800000000000000 
Al   0.400000000000000   0.400000000000000   0.200000000000000 
Al   0.800000000000000   0.600000000000000   0.600000000000000 
Al   0.200000000000000   0.000000000000000   0.200000000000000 
Al   0.600000000000000   0.200000000000000   0.800000000000000 
Al   0.800000000000000   0.200000000000000   0.200000000000000 
Al   0.000000000000000   0.400000000000000   0.600000000000000 
Al   0.800000000000000   0.200000000000000   0.800000000000000 
Al   0.000000000000000   0.000000000000000   0.200000000000000 
Al   0.400000000000000   0.400000000000000   0.400000000000000 
Al   0.400000000000000   0.600000000000000   0.000000000000000 
Al   0.000000000000000   0.000000000000000   0.800000000000000 
Al   0.400000000000000   0.600000000000000   0.600000000000000 
Al   0.400000000000000   0.200000000000000   0.200000000000000 
Al   0.200000000000000   0.600000000000000   0.000000000000000 
Al   0.600000000000000   0.400000000000000   0.200000000000000 
Al   0.800000000000000   0.800000000000000   0.000000000000000 
Al   0.400000000000000   0.400000000000000   0.600000000000000 
Al   0.400000000000000   0.200000000000000   0.800000000000000 
Al   0.800000000000000   0.800000000000000   0.600000000000000 
Al   0.600000000000000   0.800000000000000   0.200000000000000 
Al   0.200000000000000   0.200000000000000   0.200000000000000 
Al   0.800000000000000   0.400000000000000   0.200000000000000 
Al   0.400000000000000   0.200000000000000   0.400000000000000 
Al   0.400000000000000   0.400000000000000   0.800000000000000 
Al   0.200000000000000   0.200000000000000   0.800000000000000 
Al   0.000000000000000   0.800000000000000   0.200000000000000 
Al   0.800000000000000   0.400000000000000   0.800000000000000 
Al   0.000000000000000   0.200000000000000   0.200000000000000 
Al   0.800000000000000   0.000000000000000   0.400000000000000 
Al   0.400000000000000   0.000000000000000   0.200000000000000 
Al   0.400000000000000   0.200000000000000   0.600000000000000 
Al   0.000000000000000   0.200000000000000   0.800000000000000 
Al   0.400000000000000   0.800000000000000   0.600000000000000 
Al   0.200000000000000   0.800000000000000   0.000000000000000 
Al   0.200000000000000   0.400000000000000   0.200000000000000 
Al   0.200000000000000   0.800000000000000   0.600000000000000 
Al   0.200000000000000   0.600000000000000   0.600000000000000 
Al   0.000000000000000   0.800000000000000   0.000000000000000 
Al   0.800000000000000   0.600000000000000   0.200000000000000 
Al   0.600000000000000   0.000000000000000   0.800000000000000 
Al   0.200000000000000   0.400000000000000   0.800000000000000 
Al   0.200000000000000   0.400000000000000   0.400000000000000 
Al   0.800000000000000   0.600000000000000   0.800000000000000 
Al   0.000000000000000   0.400000000000000   0.200000000000000 
Al   0.800000000000000   0.200000000000000   0.400000000000000 
Al   0.000000000000000   0.400000000000000   0.800000000000000 
Al   0.000000000000000   0.600000000000000   0.000000000000000 
Al   0.600000000000000   0.000000000000000   0.600000000000000 
Al   0.600000000000000   0.600000000000000   0.800000000000000 
Al   0.000000000000000   0.000000000000000   0.400000000000000 
Al   0.200000000000000   0.400000000000000   0.600000000000000 
Al   0.400000000000000   0.600000000000000   0.200000000000000 
Al   0.600000000000000   0.800000000000000   0.000000000000000 
Al   0.400000000000000   0.600000000000000   0.800000000000000 
Al   0.000000000000000   0.600000000000000   0.200000000000000 
Al   0.200000000000000   0.600000000000000   0.200000000000000 
Al   0.600000000000000   0.000000000000000   0.400000000000000 
Al   0.800000000000000   0.800000000000000   0.200000000000000 
Al   0.000000000000000   0.800000000000000   0.600000000000000 
Al   0.200000000000000   0.600000000000000   0.800000000000000 
Al   0.800000000000000   0.800000000000000   0.800000000000000 
Al   0.000000000000000   0.400000000000000   0.000000000000000 
Al   0.600000000000000   0.400000000000000   0.400000000000000 
Al   0.200000000000000   0.200000000000000   0.400000000000000 
Al   0.800000000000000   0.400000000000000   0.400000000000000 
Al   0.200000000000000   0.200000000000000   0.600000000000000 
Al   0.800000000000000   0.000000000000000   0.000000000000000 
Al   0.000000000000000   0.600000000000000   0.800000000000000 
Al   0.600000000000000   0.800000000000000   0.800000000000000 
Al   0.600000000000000   0.600000000000000   0.000000000000000 
Al   0.000000000000000   0.200000000000000   0.400000000000000 
Al   0.400000000000000   0.800000000000000   0.200000000000000 
Al   0.200000000000000   0.000000000000000   0.400000000000000 
Al   0.600000000000000   0.000000000000000   0.000000000000000 
Al   0.000000000000000   0.600000000000000   0.600000000000000 
Al   0.000000000000000   0.800000000000000   0.400000000000000 
Al   0.400000000000000   0.800000000000000   0.800000000000000 
Al   0.600000000000000   0.400000000000000   0.600000000000000 
Al   0.200000000000000   0.800000000000000   0.200000000000000 
Al   0.600000000000000   0.600000000000000   0.200000000000000 
Al   0.400000000000000   0.000000000000000   0.000000000000000 
Al   0.000000000000000   0.400000000000000   0.400000000000000 
Al   0.200000000000000   0.800000000000000   0.800000000000000 
Al   0.400000000000000   0.000000000000000   0.600000000000000 
Al   0.600000000000000   0.400000000000000   0.000000000000000 
Al   0.800000000000000   0.600000000000000   0.400000000000000 
Al   0.200000000000000   0.000000000000000   0.000000000000000 
Al   0.600000000000000   0.600000000000000   0.400000000000000 
Al   0.800000000000000   0.200000000000000   0.000000000000000 
Al   0.000000000000000   0.800000000000000   0.800000000000000 
Al   0.200000000000000   0.000000000000000   0.800000000000000 
Al   0.200000000000000   0.000000000000000   0.600000000000000 
Al   0.800000000000000   0.200000000000000   0.600000000000000 
%ENDBLOCK POSITIONS_FRAC

kpoints_mp_spacing 0.04
