# Cell file generated by matador (Matthew Evans 2016)

%BLOCK LATTICE_CART
7.026503 0.0 0.0 
-2.3421615492641115 8.959891706865031 0.0 
-2.3421615492641115 -4.479937853082918 7.759498452301126 
%ENDBLOCK LATTICE_CART

%BLOCK POSITIONS_FRAC
C               0.062292        0.546108        0.387297
C               0.516184        0.841189        0.453892
C               0.674995        0.612703        0.158811
Cl              0.137932        0.602096        0.250443
Cl              0.535836        0.648347        0.397904
Cl              0.887489        0.749557        0.351653
C               0.938269        0.373820        0.329121
C               0.564449        0.955300        0.626180
C               0.609148        0.670879        0.044700
O               0.881830        0.258456        0.172888
O               0.623373        0.914432        0.741544
O               0.708941        0.827112        0.085568
C               0.875977        0.327712        0.441824
C               0.548265        0.114111        0.672288
C               0.434154        0.558176        0.885889
O               0.762585        0.170192        0.388634
O               0.592393        0.218442        0.829808
O               0.373951        0.611366        0.781558
C               0.937708        0.453892        0.612703
C               0.483816        0.158811        0.546108
C               0.325005        0.387297        0.841189
Cl              0.862068        0.397904        0.749557
Cl              0.464164        0.351653        0.602096
Cl              0.112511        0.250443        0.648347
C               0.061731        0.626180        0.670879
C               0.435551        0.044700        0.373820
C               0.390852        0.329121        0.955300
O               0.118170        0.741544        0.827112
O               0.376627        0.085568        0.258456
O               0.291059        0.172888        0.914432
C               0.124023        0.672288        0.558176
C               0.451735        0.885889        0.327712
C               0.565846        0.441824        0.114111
O               0.237415        0.829808        0.611366
O               0.407607        0.781558        0.170192
O               0.626049        0.388634        0.218442
Fe              0.500000        0.000000        0.000000 spin = 2
Fe              0.000000        0.000000        0.000000 spin = 2
%ENDBLOCK POSITIONS_FRAC

kpoints_mp_spacing : 0.04


