%BLOCK lattice_cart
   ANG
       4.38600100000000        7.59677800000000        0.00000000000000    
       4.38600100000000       -7.59677800000000        0.00000000000000    
       0.00000000000000        0.00000000000000        61.2759917999999    
%ENDBLOCK lattice_cart

%BLOCK positions_frac
   H             -0.000000000000000      -0.000000000000000      -0.100017867991306
   H              0.500000000000000      -0.000000000000000      -0.100017867991306
   H             -0.000000000000000       0.500000000000000      -0.100017867991306
   H              0.500000000000000       0.500000000000000      -0.100017867991306
   Ge            -0.000000000000000      -0.000000000000000      -0.074439629184059
   Ge             0.500000000000000      -0.000000000000000      -0.074439629184059
   Ge            -0.000000000000000       0.500000000000000      -0.074439629184059
   Ge             0.500000000000000       0.500000000000000      -0.074439629184059
   Ge             0.333333333333333       0.666666666666666      -0.063293755311995
   Ge             0.833333333333333       0.666666666666667      -0.063293755311995
   Ge             0.333333333333333       0.166666666666667      -0.063293755311995
   Ge             0.833333333333333       0.166666666666667      -0.063293755311995
   Ge             0.333333333333333       0.666666666666666      -0.022464646158842
   Ge             0.833333333333333       0.666666666666667      -0.022464646158842
   Ge             0.333333333333333       0.166666666666667      -0.022464646158842
   Ge             0.833333333333333       0.166666666666667      -0.022464646158842
   Ge             0.166666666666667       0.333333333333333      -0.010791790004694
   Ge             0.666666666666667       0.333333333333333      -0.010791790004694
   Ge             0.166666666666667       0.833333333333333      -0.010791790004694
   Ge             0.666666666666666       0.833333333333333      -0.010791790004694
   Ge             0.166666666666667       0.333333333333333       0.030263243041587
   Ge             0.666666666666667       0.333333333333333       0.030263243041587
   Ge             0.166666666666667       0.833333333333333       0.030263243041587
   Ge             0.666666666666666       0.833333333333333       0.030263243041587
   Ge            -0.000000000000000      -0.000000000000000       0.041247508906100
   Ge            -0.000000000000000      -0.000000000000000       0.082758643611269
   Ge             0.500000000000000      -0.000000000000000       0.041247508906100
   Ge             0.500000000000000      -0.000000000000000       0.082758643611269
   Ge            -0.000000000000000       0.500000000000000       0.041247508906100
   Ge            -0.000000000000000       0.500000000000000       0.082758643611269
   Ge             0.500000000000000       0.500000000000000       0.041247508906100
   Ge             0.500000000000000       0.500000000000000       0.082758643611269
   Te             0.333333333333333       0.166666666666667       0.101042754224086
   Te             0.333333333333333       0.666666666666666       0.101042754224086
   Te             0.833333333333333       0.166666666666667       0.101042754224086
   Te             0.833333333333333       0.666666666666667       0.101042754224086
   Te             0.166666666666667       0.333333333333333       0.182193888013224
   Te             0.166666666666667       0.833333333333333       0.182193888013224
   Te             0.666666666666667       0.333333333333333       0.182193888013224
   Te             0.666666666666666       0.833333333333333       0.182193888013224
   Te             0.333333333333333       0.166666666666667       0.244525317268207
   Te             0.333333333333333       0.666666666666666       0.244525317268207
   Te             0.833333333333333       0.166666666666667       0.244525317268207
   Te             0.833333333333333       0.666666666666667       0.244525317268207
   Te            -0.000000000000000      -0.000000000000000       0.306999739612854
   Te            -0.000000000000000       0.500000000000000       0.306999739612854
   Te             0.500000000000000      -0.000000000000000       0.306999739612854
   Te             0.500000000000000       0.500000000000000       0.306999739612854
   Te             0.333333333333333       0.166666666666667       0.362317283353179
   Te             0.333333333333333       0.666666666666666       0.362317283353179
   Te             0.833333333333333       0.166666666666667       0.362317283353179
   Te             0.833333333333333       0.666666666666667       0.362317283353179
   Te            -0.000000000000000      -0.000000000000000       0.424755277249343
   Te            -0.000000000000000       0.500000000000000       0.424755277249343
   Te             0.500000000000000      -0.000000000000000       0.424755277249343
   Te             0.500000000000000       0.500000000000000       0.424755277249343
   Te             0.166666666666667       0.333333333333333       0.487221664495710
   Te             0.166666666666667       0.833333333333333       0.487221664495710
   Te             0.666666666666667       0.333333333333333       0.487221664495710
   Te             0.666666666666666       0.833333333333333       0.487221664495710
   Te            -0.000000000000000      -0.000000000000000       0.542302476369666
   Te            -0.000000000000000       0.500000000000000       0.542302476369666
   Te             0.500000000000000      -0.000000000000000       0.542302476369666
   Te             0.500000000000000       0.500000000000000       0.542302476369666
   Te             0.166666666666667       0.333333333333333       0.604734451775233
   Te             0.166666666666667       0.833333333333333       0.604734451775233
   Te             0.666666666666667       0.333333333333333       0.604734451775233
   Te             0.666666666666666       0.833333333333333       0.604734451775233
   Te             0.333333333333333       0.166666666666667       0.667049889943908
   Te             0.333333333333333       0.666666666666666       0.667049889943908
   Te             0.833333333333333       0.166666666666667       0.667049889943908
   Te             0.833333333333333       0.666666666666667       0.667049889943908
   Bi            -0.000000000000000      -0.000000000000000       0.210582958074630
   Bi            -0.000000000000000       0.500000000000000       0.210582958074630
   Bi             0.500000000000000      -0.000000000000000       0.210582958074630
   Bi             0.500000000000000       0.500000000000000       0.210582958074630
   Bi             0.166666666666667       0.333333333333333       0.278519386981173
   Bi             0.166666666666667       0.833333333333333       0.278519386981173
   Bi             0.666666666666667       0.333333333333333       0.278519386981173
   Bi             0.666666666666666       0.833333333333333       0.278519386981173
   Bi             0.166666666666667       0.333333333333333       0.390814488549878
   Bi             0.166666666666667       0.833333333333333       0.390814488549878
   Bi             0.666666666666667       0.333333333333333       0.390814488549878
   Bi             0.666666666666666       0.833333333333333       0.390814488549878
   Bi             0.333333333333333       0.166666666666667       0.458742287602276
   Bi             0.333333333333333       0.666666666666666       0.458742287602276
   Bi             0.833333333333333       0.166666666666667       0.458742287602276
   Bi             0.833333333333333       0.666666666666667       0.458742287602276
   Bi             0.333333333333333       0.166666666666667       0.570803644413406
   Bi             0.333333333333333       0.666666666666666       0.570803644413406
   Bi             0.833333333333333       0.166666666666667       0.570803644413406
   Bi             0.833333333333333       0.666666666666667       0.570803644413406
   Bi            -0.000000000000000      -0.000000000000000       0.638709835254799
   Bi            -0.000000000000000       0.500000000000000       0.638709835254799
   Bi             0.500000000000000      -0.000000000000000       0.638709835254799
   Bi             0.500000000000000       0.500000000000000       0.638709835254799
%ENDBLOCK positions_frac

kpoints_mp_spacing 0.04
