%block lattice_abc
  6.9214000   5.5294000  12.3048000 
 90.0000000  85.4390000  90.0000000 
%endblock lattice_abc

%block positions_frac
Ti       0.0600000   0.7500000   0.1036000       
Ti       0.1740000   0.2500000   0.3171000    
Sr    0.3161000   0.2500000   0.0517000   
Sr    0.4371000   0.7500000   0.2498000  
Sr    0.8167000   0.2500000   0.1558000     
Sr   -0.0473000   0.7500000   0.3915000   
Sr    0.4113000   0.7500000   0.5624000   
O        0.0000000   0.0000000   0.0000000           
O        0.1190000   0.0000000   0.2070000           
O        0.2680000   0.0000000   0.4160000          
O        0.3430000   0.7500000   0.0550000         
O        0.4330000   0.2500000   0.2310000        
O        0.7770000   0.7500000   0.1530000          
O       -0.0840000   0.2500000   0.4030000         
O        0.3680000   0.2500000   0.6280000          
%endblock positions_frac

kpoints_mp_spacing 0.04
