%block LATTICE_CART
    3.3256109866   -1.9200423983    0.0000000000
    0.0000000000    3.8400847967    0.0000000000
    0.0000000000    0.0000000000   28.8124966413
%endblock LATTICE_CART

%block POSITIONS_FRAC
Si    0.0000000000    0.0000000000   -0.6735358120
Si    0.0000000000    0.0000000000   -1.0000000000
Si    0.3333333333   -0.3333333333   -0.6463304630
Si    0.3333333333   -0.3333333333   -0.9727946510
Si    0.0000000000    0.0000000000   -0.7551518590
Si    0.6666666667    0.3333333333   -0.5375090670
Si    0.6666666667    0.3333333333   -0.8639732550
Si    0.0000000000    0.0000000000   -0.4003615601
Si    0.6666666667    0.3333333333   -0.7823572080
Si    0.3333333333   -0.3333333333   -0.5647144160
Si    0.3333333333   -0.3333333333   -0.8911786040
Si    0.6666666667   -0.6666666667   -0.3646552071
H     0.0000000000    0.0000000000   -1.0504078061
Er    0.3333333333    1.6666666667   -0.4514099726
%endblock POSITIONS_FRAC

SYMMETRY_GENERATE

kpoints_mp_spacing 0.04
