%block lattice_cart
   7.4670500   0.0000000   0.0000000      
  -3.7335200   6.4666500   0.0000000  
   0.0000000   0.0000000  20.1291000
%endblock lattice_cart

%block positions_frac
              C                     0.121945   0.227620   0.466678    
              Ni                   -0.000105   0.000139   0.102488 spin = 1
              Ni                    0.333608   0.000232   0.102488 spin = 1
              Ni                    0.666865   0.000433   0.102459 spin = 1   
              Ni                    0.000016   0.333202   0.102548 spin = 1   
              Ni                    0.333235   0.333140   0.102623 spin = 1   
              Ni                    0.666467   0.333155   0.102553 spin = 1   
              Ni                    0.000195   0.667053   0.102583 spin = 1   
              Ni                    0.333545   0.667332   0.102533 spin = 1   
              Ni                    0.667132   0.667363   0.102533 spin = 1   
              Ni                   0.222475   0.111619   0.202284  spin = 1  
              Ni                   0.555799   0.111418   0.202299  spin = 1  
              Ni                   0.888906   0.111371   0.202304  spin = 1  
              Ni                   0.222238   0.444048   0.202264  spin = 1  
              Ni                   0.555077   0.444001   0.202279  spin = 1  
              Ni                   0.889259   0.445115   0.202215  spin = 1  
              Ni                   0.221911   0.777342   0.202264  spin = 1  
              Ni                   0.555493   0.777682   0.202254  spin = 1  
              Ni                   0.888802   0.777450   0.202274  spin = 1  
              Ni                   0.111388   0.222588   0.302547  spin = 1  
              Ni                   0.444583   0.222666   0.302547  spin = 1  
              Ni                   0.777840   0.222356   0.302557  spin = 1  
              Ni                   0.111060   0.555960   0.302527  spin = 1  
              Ni                   0.444104   0.554878   0.302597  spin = 1  
              Ni                   0.778189   0.555929   0.302532  spin = 1  
              Ni                   0.110863   0.888389   0.302537  spin = 1  
              Ni                   0.444411   0.888636   0.302502  spin = 1  
              Ni                   0.777563   0.888652   0.302512  spin = 1  
              Ni                  -0.000289  -0.000309   0.402333  spin = 1  
              Ni                   0.333374  -0.000263   0.402323  spin = 1  
              Ni                   0.666428  -0.000495   0.402353  spin = 1  
              Ni                  -0.000171   0.332723   0.402258  spin = 1  
              Ni                   0.333177   0.332970   0.402214  spin = 1  
              Ni                   0.666206   0.332661   0.402253  spin = 1  
              Ni                   0.000104   0.666899   0.402204  spin = 1  
              Ni                   0.333341   0.666790   0.402258  spin = 1  
              Ni                   0.666877   0.666852   0.402268  spin = 1  
%endblock positions_frac

kpoints_mp_spacing 0.04
 
 
