%BLOCK LATTICE_CART
       2.393683178885406       1.386152083935975       5.075415875918719
      -2.393683178885407       1.386152083935975       5.075415875918721
       0.000000000000002      -2.772304167871950       5.075415875918720
%ENDBLOCK LATTICE_CART

%BLOCK POSITIONS_FRAC
  C   0.7499999999999998   0.7500000000000001   0.7500000000000000
  C  -0.7499999999999998  -0.7500000000000001  -0.7500000000000000
  O   0.2499999999999998   0.5197982391488178   0.9802017608511819
  O   0.9802017608511819   0.2500000000000000   0.5197982391488180
  O   0.5197982391488177   0.9802017608511819   0.2499999999999999
  O  -0.2499999999999998  -0.5197982391488178  -0.9802017608511819
  O  -0.9802017608511819  -0.2500000000000000  -0.5197982391488180
  O  -0.5197982391488177  -0.9802017608511819  -0.2499999999999999
 Fe   0.0000000000000000   0.0000000000000000   0.0000000000000000 SPIN=  4.0000000000
 Fe   0.4999999999999999   0.5000000000000000   0.5000000000000000 SPIN=  4.0000000000
%ENDBLOCK POSITIONS_FRAC


kpoints_mp_spacing 0.04


