%BLOCK LATTICE_ABC
15.506300  15.506300   12.312900
90.000000  90.000000   90.000000
%ENDBLOCK LATTICE_ABC

%BLOCK POSITIONS_FRAC
O    0.9086    0.2102    0.7558
O    0.8871    0.1149    0.6129
C    0.9632    0.0650    0.8800
C    0.9597    0.0685    0.7680
C    0.9150    0.1330    0.7100
H    0.9388    0.1108    0.9188
In    0.8117    0.3117    0.7500
O    0.7500    0.2520    0.8750
C    0.0000    0.0000    0.9370
C    0.0000    0.0000    0.7120
H    0.0000    0.0000    0.6369
O    0.7898    0.4086    0.0058
O    0.8851    0.3871    0.8629
C    0.9350    0.4632    0.1300
C    0.9315    0.4597    0.0180
C    0.8670    0.4150    0.9600
H    0.8892    0.4388    0.1688
In    0.6883    0.3117    0.0000
O    0.7480    0.2500    0.1250
C    0.0000    0.5000    0.1870
C    0.0000    0.5000    0.9620
H    0.0000    0.5000    0.8869
O    0.0914    0.7898    0.7558
O    0.1129    0.8851    0.6129
C    0.0368    0.9350    0.8800
C    0.0403    0.9315    0.7680
C    0.0850    0.8670    0.7100
H    0.0612    0.8892    0.9188
In    0.1883    0.6883    0.7500
O    0.2500    0.7480    0.8750
O    0.2102    0.5914    0.0058
O    0.1149    0.6129    0.8629
C    0.0650    0.5368    0.1300
C    0.0685    0.5403    0.0180
C    0.1330    0.5850    0.9600
H    0.1108    0.5612    0.1688
In    0.3117    0.6883    0.0000
O    0.2520    0.7500    0.1250
O    0.9086    0.2898    0.4942
O    0.8871    0.3851    0.6371
C    0.9632    0.4350    0.3700
C    0.9597    0.4315    0.4820
C    0.9150    0.3670    0.5400
H    0.9388    0.3892    0.3312
In    0.8117    0.1883    0.5000
O    0.7500    0.2480    0.3750
C    0.0000    0.5000    0.3130
C    0.0000    0.5000    0.5380
H    0.0000    0.5000    0.6131
O    0.0914    0.7102    0.4942
O    0.1129    0.6149    0.6371
C    0.0368    0.5650    0.3700
C    0.0403    0.5685    0.4820
C    0.0850    0.6330    0.5400
H    0.0612    0.6108    0.3312
In    0.1883    0.8117    0.5000
O    0.2500    0.7520    0.3750
O    0.2102    0.9086    0.2442
O    0.1149    0.8871    0.3871
C    0.0650    0.9632    0.1200
C    0.0685    0.9597    0.2320
C    0.1330    0.9150    0.2900
H    0.1108    0.9388    0.0812
In    0.3117    0.8117    0.2500
C    0.0000    0.0000    0.0630
C    0.0000    1.0000    0.2880
H    0.0000    1.0000    0.3631
O    0.7898    0.0914    0.2442
O    0.8851    0.1129    0.3871
C    0.9350    0.0368    0.1200
C    0.9315    0.0403    0.2320
C    0.8670    0.0850    0.2900
H    0.8892    0.0612    0.0812
In    0.6883    0.1883    0.2500
O    0.4086    0.7102    0.2558
O    0.3871    0.6149    0.1129
C    0.4632    0.5650    0.3800
C    0.4597    0.5685    0.2680
C    0.4150    0.6330    0.2100
H    0.4388    0.6108    0.4188
C    0.5000    0.5000    0.4370
C    0.5000    0.5000    0.2120
H    0.5000    0.5000    0.1369
O    0.2898    0.9086    0.5058
O    0.3851    0.8871    0.3629
C    0.4350    0.9632    0.6300
C    0.4315    0.9597    0.5180
C    0.3670    0.9150    0.4600
H    0.3892    0.9388    0.6688
O    0.2480    0.7500    0.6250
C    0.5000    1.0000    0.6870
C    0.5000    1.0000    0.4620
H    0.5000    1.0000    0.3869
O    0.5914    0.2898    0.2558
O    0.6129    0.3851    0.1129
C    0.5368    0.4350    0.3800
C    0.5403    0.4315    0.2680
C    0.5850    0.3670    0.2100
H    0.5612    0.3892    0.4188
O    0.7102    0.0914    0.5058
O    0.6149    0.1129    0.3629
C    0.5650    0.0368    0.6300
C    0.5685    0.0403    0.5180
C    0.6330    0.0850    0.4600
H    0.6108    0.0612    0.6688
O    0.7520    0.2500    0.6250
O    0.4086    0.7898    0.9942
O    0.3871    0.8851    0.1371
C    0.4632    0.9350    0.8700
C    0.4597    0.9315    0.9820
C    0.4150    0.8670    0.0400
H    0.4388    0.8892    0.8312
C    0.5000    0.0000    0.8130
C    0.5000    0.0000    0.0380
H    0.5000    0.0000    0.1131
O    0.5914    0.2102    0.9942
O    0.6129    0.1149    0.1371
C    0.5368    0.0650    0.8700
C    0.5403    0.0685    0.9820
C    0.5850    0.1330    0.0400
H    0.5612    0.1108    0.8312
O    0.7102    0.4086    0.7442
O    0.6149    0.3871    0.8871
C    0.5650    0.4632    0.6200
C    0.5685    0.4597    0.7320
C    0.6330    0.4150    0.7900
H    0.6108    0.4388    0.5812
C    0.5000    0.5000    0.5630
C    0.5000    0.5000    0.7880
H    0.5000    0.5000    0.8631
O    0.2898    0.5914    0.7442
O    0.3851    0.6129    0.8871
C    0.4350    0.5368    0.6200
C    0.4315    0.5403    0.7320
C    0.3670    0.5850    0.7900
H    0.3892    0.5612    0.5812
%ENDBLOCK POSITIONS_FRAC

symmetry_generate
snap_to_symmetry

kpoints_mp_spacing 0.04
