%BLOCK LATTICE_CART
ang    # angstrom units
   2.826850000000000   2.826850000000000   0.000000000000000
   2.826850000000000   0.000000000000000   2.826850000000000
   0.000000000000000   2.826850000000000   2.826850000000000
%ENDBLOCK LATTICE_CART

%BLOCK POSITIONS_FRAC
As   0.250000000000000   0.250000000000000   0.250000000000000 
Ga   0.000000000000000   0.000000000000000   0.000000000000000 
%ENDBLOCK POSITIONS_FRAC

kpoints_mp_spacing 0.04
