%BLOCK LATTICE_CART
ang    # angstrom units
   7.563057620000000   0.000000000000000   0.000000000000000
  -6.302548016666666   4.182461360407459   0.000000000000000
   0.000000000000000   0.000000000000000   5.761122910000000
%ENDBLOCK LATTICE_CART

%BLOCK POSITIONS_FRAC
Ba   0.858157000000000   0.141843000000000   0.502570000000000 
Ba   0.141843000000000   0.858157000000000   0.002570000000000 
Cu   0.589845000000000   0.410155000000000   0.469276000000000 
Cu   0.410155000000000   0.589845000000000   0.969276000000000 
F    0.078591000000000   0.921409000000000   0.465955000000000 
F    0.921409000000000   0.078591000000000   0.965955000000000 
F    0.670280000000000   0.329720000000000   0.744468000000000 
F    0.329720000000000   0.670280000000000   0.244468000000000 
F    0.477368000000000   0.522632000000000   0.661600000000000 
F    0.522632000000000   0.477368000000000   0.161600000000000 
F    0.301808000000000   0.698192000000000   0.763031000000000 
F    0.698192000000000   0.301808000000000   0.263031000000000 
%ENDBLOCK POSITIONS_FRAC

kpoints_mp_spacing 0.04

