%BLOCK lattice_abc
2.465719 2.465719 8.0
  90.0 90.0 120.0
%ENDBLOCK lattice_abc

%BLOCK POSITIONS_FRAC
C   0.000000000000000   0.000000000000000   0.000000000000000 
C   0.333333333333333   0.666666666666667   0.000000000000000
%ENDBLOCK POSITIONS_FRAC

symmetry_generate

kpoints_mp_spacing 0.04
