
%BLOCK lattice_abc
2.465719 2.465719 10.0
  90.0 90.0 120.0
%ENDBLOCK lattice_abc

%BLOCK POSITIONS_FRAC
C   0.000000000000000   0.000000000000000   0.000000000000000 
C   0.333333333333333   0.666666666666667   0.000000000000000
%ENDBLOCK POSITIONS_FRAC

!%BLOCK SPECIES_POT
!C C_OTF.usp
!%ENDBLOCK SPECIES_POT

symmetry_generate

#%BLOCK CELL_CONSTRAINTS
#       1       1       0
#       0       0       0
#%ENDBLOCK CELL_CONSTRAINTS

kpoint_mp_grid 4 4 1

