%block lattice_cart
20 0 0
0  20 0
0 0 20
%endblock lattice_cart

%block positions_abs
Fe      0.4663345468        3.4338801230       -3.6766103940 spin = 2
Fe     -1.6983966642        1.2381466698        0.1030280637 spin = 2
Fe     -2.9055320115        0.4307307467        1.9342492471 spin = 2
Fe      1.2163788887        0.9691386984       -2.8478880822 spin = 2
Fe      1.7288785005        3.1267770383       -1.2966827147 spin = 2
Fe     -2.7694496833        5.6527827641       -1.6737127275 spin = 2
Fe     -0.9620010055       -0.2931764833       -1.8551534445 spin = 2
Fe     -3.3234684121       -0.4738603162       -0.6257172422 spin = 2
Fe     -2.8181153487        1.5105089679       -2.0076694802 spin = 2
Fe     -0.4412823326        6.8608778050       -1.2082407557 spin = 2
Fe     -3.5607597444        4.9346135835       -4.1139147203 spin = 2
Fe     -3.7114851758        2.1932759850       -4.2073548242 spin = 2
Fe     -0.3344548276        1.3718408711        2.1584318760 spin = 2
Fe     -5.0837515155        0.9605650445       -2.1717478781 spin = 2
Fe     -1.1967203230        1.3202324859       -4.0217641509 spin = 2
Fe     -2.0352179854        3.5533779510       -3.0060442204 spin = 2
Fe     -2.3959531498        3.4462547040       -0.6119132130 spin = 2
Fe     -3.1554301752       -0.3617600716       -3.3653492083 spin = 2
Fe      1.4870399379        5.5385529555       -2.4018408184 spin = 2
Fe     -4.1977842007        1.9257263684        0.1477453082 spin = 2
Fe      1.8919937441        2.7549993172        1.3361288152 spin = 2
Fe     -0.2234757901        3.1126867276        0.4091360550 spin = 2
Fe     -0.4867863179        2.1370647463       -1.7936569090 spin = 2
Fe      0.8461190632        0.8233288544       -0.1709603058 spin = 2
Fe     -0.4316431210        4.5435784936       -1.5123760712 spin = 2
Fe      1.1248391640        5.1796841591        0.2974936834 spin = 2
Fe    -4.0991176724        4.6141811537        0.4423185705 spin = 2
Fe     -0.9622795463        5.6873582930       -3.6367793057 spin = 2
Fe     -2.3896644090        3.0422314640        1.8319382439 spin = 2
 Fe    -0.0363280276        4.0773247261        2.5297293593 spin = 2
Fe     -0.9772103566       -0.8915944693        0.7406485571 spin = 2
Fe     -1.6324377347        3.6122877833       -5.3075143997 spin = 2
 Fe    -4.4325040938        3.5391357606       -2.0188661719 spin = 2
Fe     -1.5069055853        5.3456793961        0.7062156449 spin = 2
%endblock positions_abs

symmetry_generate

kpoints_mp_spacing 0.04

