%BLOCK lattice_cart
   4.60   0.00   0.00
   0.00   4.60   0.00
   0.00   0.00   2.95
%ENDBLOCK lattice_cart


%BLOCK positions_frac
  Ti 0.195286  0.804714  0.283762 
  Ti 0.900071  0.099929  0.289602  
  Ti 0.804714  0.195286  0.716238  
  Ti 0.099929  0.900071  0.710398 
  O  0.941648  0.058352  0.630021 
  O  0.361932  0.638068  0.293397 
  O  0.867189  0.132811  0.995291 
  O  0.058352  0.941648  0.369979
  O  0.263489  0.736511  0.652500 
  O  0.132811  0.867189  0.004709
  O  0.736511  0.263489  0.347500 
  O  0.638068  0.361932  0.706603 
%ENDBLOCK positions_frac


kpoint_mp_grid 4 4 4

symmetry_generate

