%BLOCK LATTICE_CART
   2.855954550000000   0.000000000000000   0.000000000000000
   1.427977275000000   2.473329192353754   0.000000000000000
   1.427977275000000   0.824443064117918   2.331877125359982
%ENDBLOCK LATTICE_CART

%BLOCK POSITIONS_FRAC
Al   0.000000000000000   0.000000000000000   0.000000000000000 
%ENDBLOCK POSITIONS_FRAC

kpoints_mp_spacing 0.04
