%BLOCK LATTICE_CART
ang    # angstrom units
   5.056202700000000   0.000000000000000   0.000000000000000
  -1.577372075282392   4.803861267731054   0.000000000000000
   0.000000000000000   0.000000000000000   2.870760670000000
%ENDBLOCK LATTICE_CART

%BLOCK POSITIONS_FRAC
Ni   0.000000000000000   0.500000000000000   0.000000000000000 spin = 1
Ni   0.500000000000000   0.000000000000000   0.000000000000000  spin = 1
Ni   0.500000000000000   0.500000000000000   0.500000000000000  spin = 1
O    0.707590000000000   0.707590000000000   0.000000000000000 
O    0.292410000000000   0.292410000000000   0.000000000000000 
O    0.270600000000000   0.729400000000000   0.500000000000000 
O    0.729400000000000   0.270600000000000   0.500000000000000 
%ENDBLOCK POSITIONS_FRAC

kpoints_mp_spacing 0.04
