!%BLOCK lattice_abc
!5.05620270 5.05620270 2.87076067
!  90.0 90.0 108.17785508
!%ENDBLOCK lattice_abc
_cell_length_a   5.95052902
_cell_length_b   10.28439241
_cell_length_c   5.95052802
_cell_angle_alpha   106.81598496
_cell_angle_beta   120.00000473
_cell_angle_gamma   73.18400973


!%BLOCK POSITIONS_FRAC
! Ni 0.000000  0.500000  0.000000
!  Ni 0.500000  0.000000  0.000000  
!  Ni 0.500000  0.500000  0.500000  
!  O 0.707590  0.707590  1.000000  
!  O 0.292410  0.292410  1.000000  
!  O 0.270600  0.729400  0.500000  
!  O 0.729400  0.270600  0.500000  
!%ENDBLOCK POSITIONS_FRAC

%BLOCK lattice_abc
5.95052902 10.28439241 5.95052802
  106.81598496 120.00000473 73.18400973
%ENDBLOCK lattice_abc

%BLOCK POSITIONS_FRAC
  Ni 0.000000  0.000000  0.000000  
  Ni 0.000000  0.000000  0.500000  
  Ni 0.000000  0.500000  0.000000  
  Ni 0.000000  0.500000  0.500000  
  Ni  0.500000  0.000000  -0.000000  
  Ni  0.500000  0.000000  0.500000  
  Ni 0.500000  0.500000  0.000000  
  Ni  0.500000  0.500000  0.500000  
  Ni   0.250000  0.250000  0.250000  
  Ni  0.250000  0.250000  0.750000  
  Ni   0.250000  0.750000  0.250000  
  Ni   0.250000  0.750000  0.750000  
  Ni  0.750000  0.250000  0.250000  
  Ni  0.750000  0.250000  0.750000  
  Ni   0.750000  0.750000  0.250000  
  Ni   0.750000  0.750000  0.750000  
  O   0.124999  0.125003  0.375001  
  O    0.124999  0.125003  0.875001  
  O   0.124999  0.625003  0.375001  
  O   0.124999  0.625003  0.875001  
  O  0.624999  0.125003  0.375001  
  O   0.624999  0.125003  0.875001  
  O  0.624999  0.625003  0.375001  
  O    0.624999  0.625003  0.875001  
  O    0.375001  0.374997  0.124999  
  O    0.375001  0.374997  0.624999  
  O   0.375001  0.874997  0.124999  
  O   0.375001  0.874997  0.624999  
  O   0.875001  0.374997  0.124999  
  O    0.875001  0.374997  0.624999  
  O    0.875001  0.874997  0.124999  
  O   0.875001  0.874997  0.624999  
%ENDBLOCK POSITIONS_FRAC


symmetry_generate

kpoint_mp_grid 2 2 2

