%BLOCK LATTICE_CART
    4.2112000000    0.0000000000    0.0000000000
    0.0000000000    4.2112000000    0.0000000000
    0.0000000000    0.0000000000   4.2112000000
%ENDBLOCK LATTICE_CART

%BLOCK POSITIONS_ABS
     O    2.10560000000    2.10560000000    2.10560000000
     O    2.10560000000    0.0000000000    0.0000000000
     O    0.0000000000    2.10560000000    0.0000000000
     O    0.0000000000    0.0000000000    2.10560000000
    Mg    0.0000000000    0.0000000000    0.0000000000
    Mg    0.0000000000    2.10560000000    2.10560000000
    Mg    2.10560000000    0.0000000000    2.10560000000
    Mg    2.10560000000    2.10560000000    0.0000000000
%ENDBLOCK POSITIONS_ABS

kpoints_mp_spacing 0.04



