%BLOCK LATTICE_CART
       5.671546863771250      -3.308460695254890       0.000000000000002
       0.029437577627439       6.565934010407310       0.000000000000000
      -0.000000000000002       0.000000000000000      10.622000000000000
%ENDBLOCK LATTICE_CART

%BLOCK POSITIONS_FRAC
  O   0.1666666666666670   0.3333333333333329   0.1913000000000000
  O   0.3333333333333329   0.1666666666666669   0.4413000000000000
  O   0.6666666666666669   0.3333333333333329   0.1913000000000000
  O   0.8333333333333329   0.1666666666666669   0.4413000000000000
  O   0.1666666666666670   0.8333333333333330   0.1913000000000000
  O   0.3333333333333330   0.6666666666666659   0.4413000000000000
  O   0.6666666666666670   0.8333333333333329   0.1913000000000000
  O   0.8333333333333329   0.6666666666666659   0.4413000000000000
  O   0.1666666666666670   0.3333333333333330   0.6913000000000000
  O   0.3333333333333330   0.1666666666666660   0.9412999999999999
  O   0.6666666666666670   0.3333333333333329   0.6913000000000000
  O   0.8333333333333330   0.1666666666666659   0.9413000000000000
  O   0.1666666666666670   0.8333333333333330   0.6913000000000000
  O   0.3333333333333330   0.6666666666666669   0.9412999999999999
  O   0.6666666666666669   0.8333333333333329   0.6913000000000000
  O   0.8333333333333330   0.6666666666666659   0.9413000000000000
 Zn   0.1666666666666670   0.3333333333333329   0.0000000000000003
 Zn   0.3333333333333330   0.1666666666666670   0.2500000000000000
 Zn   0.6666666666666669   0.3333333333333329   0.0000000000000003
 Zn   0.8333333333333330   0.1666666666666670   0.2500000000000000
 Zn   0.1666666666666670   0.8333333333333330   0.0000000000000003
 Zn   0.6666666666666670   0.8333333333333329   0.0000000000000003
 Zn   0.8333333333333330   0.6666666666666669   0.2500000000000000
 Zn   0.1666666666666670   0.3333333333333329   0.4999999999999999
 Zn   0.3333333333333330   0.1666666666666670   0.7500000000000000
 Zn   0.6666666666666670   0.3333333333333329   0.5000000000000000
 Zn   0.8333333333333329   0.1666666666666669   0.7500000000000000
 Zn   0.1666666666666670   0.8333333333333330   0.4999999999999999
 Zn   0.3333333333333330   0.6666666666666669   0.7500000000000000
 Zn   0.6666666666666669   0.8333333333333329   0.5000000000000000
 Zn   0.8333333333333329   0.6666666666666669   0.7500000000000000
 Ta   0.3333333333333330   0.6666666666666669   0.2500000000000000
%ENDBLOCK POSITIONS_FRAC

kpoints_mp_spacing 0.04




