%BLOCK LATTICE_CART
   4.038929660000000   0.000000000000000   0.000000000000000
   0.000000000000000   4.038929660000000   0.000000000000000
   0.000000000000000   0.000000000000000  26.155718640000000
%ENDBLOCK LATTICE_CART

%BLOCK POSITIONS_ABS
Al   0.000000000000000   0.000000000000000   0.000000000000000 
Al   0.000000000000000   0.000000000000000   4.038929660000000 
Al   0.000000000000000   0.000000000000000   8.077859320000000 
Al   0.000000000000000   0.000000000000000  12.116788979999999 
Al   0.000000000000000   2.019464830000000   2.019464830000000 
Al   0.000000000000000   2.019464830000000   6.058394490000000 
Al   0.000000000000000   2.019464830000000  10.097324150000000 
Al   0.000000000000000   2.019464830000000  14.136253809999999 
Al   2.019464830000000   0.000000000000000   2.019464830000000 
Al   2.019464830000000   0.000000000000000   6.058394490000000 
Al   2.019464830000000   0.000000000000000  10.097324150000000 
Al   2.019464830000000   0.000000000000000  14.136253809999999 
Al   2.019464830000000   2.019464830000000   0.000000000000000 
Al   2.019464830000000   2.019464830000000   4.038929660000000 
Al   2.019464830000000   2.019464830000000   8.077859320000000 
Al   2.019464830000000   2.019464830000000  12.116788979999999 
%ENDBLOCK POSITIONS_ABS

kpoints_mp_spacing 0.04
