%block lattice_abc
  3.8187000   3.8833000  11.6687000 
 90.0000000  90.0000000  90.0000000 
%endblock lattice_abc

%block positions_frac
Y     0.5000000   0.5000000   0.5000000 
Ba    0.5000000   0.5000000   0.1844000    
Cu    0.0000000   0.0000000   0.0000000   
Cu    0.0000000   0.0000000   0.3554000    
O     0.0000000   0.5000000   0.0000000  
O     0.5000000   0.0000000   0.3788000
O     0.0000000   0.5000000   0.3771000  
O     0.0000000   0.0000000   0.1579000 
%endblock positions_frac

kpoints_mp_spacing 0.04
