%BLOCK LATTICE_CART
ang    # angstrom units
   8.420787830000000   0.000000000000000   0.000000000000000
  -1.429823505770472   8.298510253064844   0.000000000000000
  -3.811236743216194   3.210723285324228   6.800091809853250
%ENDBLOCK LATTICE_CART

%BLOCK POSITIONS_FRAC
U    0.632056000000000   0.223989000000000   0.329697000000000 spin = 1.5
U    0.223989000000000   0.632056000000000   0.170303000000000 spin = 1.5
U    0.367944000000000   0.776011000000000   0.670303000000000 spin = 1.5
U    0.776011000000000   0.367944000000000   0.829697000000000 spin = 1.5
U    0.212746000000000   0.212746000000000   0.750000000000000 spin = 1.5
U    0.787254000000000   0.787254000000000   0.250000000000000 spin = 1.5
F    0.973851000000000   0.726453000000000   0.151823000000000 
F    0.726453000000000   0.973851000000000   0.348177000000000 
F    0.026149000000000   0.273547000000000   0.848177000000000 
F    0.273547000000000   0.026149000000000   0.651823000000000 
F    0.745034000000000   0.502663000000000   0.290628000000000 
F    0.502663000000000   0.745034000000000   0.209372000000000 
F    0.000000000000000   0.500000000000000   0.000000000000000 
F    0.500000000000000   0.000000000000000   0.500000000000000 
F    0.399042000000000   0.399042000000000   0.250000000000000 
F    0.600958000000000   0.600958000000000   0.750000000000000 
F    0.600427000000000   0.810298000000000   0.927057000000000 
F    0.810298000000000   0.600427000000000   0.572943000000000 
F    0.399573000000000   0.189702000000000   0.072943000000000 
F    0.189702000000000   0.399573000000000   0.427057000000000 
F    0.823281000000000   0.067356000000000   0.045207000000000 
F    0.067356000000000   0.823281000000000   0.454793000000000 
F    0.176719000000000   0.932644000000000   0.954793000000000 
F    0.932644000000000   0.176719000000000   0.545207000000000 
F    0.261420000000000   0.677173000000000   0.895541000000000 
F    0.677173000000000   0.261420000000000   0.604459000000000 
F    0.738580000000000   0.322827000000000   0.104459000000000 
F    0.322827000000000   0.738580000000000   0.395541000000000 
F    0.497337000000000   0.254966000000000   0.790628000000000 
F    0.254966000000000   0.497337000000000   0.709372000000000 
%ENDBLOCK POSITIONS_FRAC

kpoints_mp_spacing 0.04

