%block lattice_abc
2.4657 2.4657 8.0
90 90 120
%endblock lattice_abc

%block positions_frac
C 0.0 0.0 0.0
C 0.3333 0.66667 0.0
%endblock positions_frac


%BLOCK SPECIES_POT
C 2|3.0|10|12|13|20:21(qc=7)
!C C_allelectron.recpot 
%ENDBLOCK SPECIES_POT

!%block species_pot
!Li 2|1.0|14|16|18|20(qc=7)[2s1]
!%endblock species_pot

SNAP_TO_SYMMETRY
KPOINT_MP_SPACING 0.04 1/ang
