%block lattice_abc
   5.7872000000000000        5.7872000000000000        13.829000000000000     
 90 90 90
%endblock lattice_abc
  
%block positions_frac
  O   0.0000000000000000        0.0000000000000000   0.433141  
  O   0.2500000000000000        0.2500000000000000   0.574456  
  O   0.0000000000000000        0.0000000000000000   0.715772  
  O   0.2500000000000000        0.2500000000000000   0.857087  
  O   0.5000000000000000        0.0000000000000000   0.433141  
  O   0.7500000000000000        0.2500000000000000   0.574456  
  O   0.5000000000000000        0.0000000000000000   0.715772  
  O   0.7500000000000000        0.2500000000000000   0.857087  
  O   0.0000000000000000        0.5000000000000000   0.433141  
  O   0.2500000000000000        0.7500000000000000   0.574456  
  O   0.0000000000000000        0.5000000000000000   0.715772  
  O   0.2500000000000000        0.7500000000000000   0.857087  
  O   0.5000000000000000        0.5000000000000000   0.433141  
  O   0.7500000000000000        0.7500000000000000   0.574456  
  O   0.5000000000000000        0.5000000000000000   0.715772  
  O   0.7500000000000000        0.7500000000000000   0.857087  
 Mg   0.2500000000000000        0.2500000000000000   0.433141  
 Mg   0.0000000000000000        0.0000000000000000   0.574456  
 Mg   0.2500000000000000        0.2500000000000000   0.715772  
 Mg   0.0000000000000000        0.0000000000000000   0.857087  
 Mg   0.7500000000000000        0.2500000000000000   0.433141  
 Mg   0.5000000000000000        0.0000000000000000   0.574456  
 Mg   0.7500000000000000        0.2500000000000000   0.715772  
 Mg   0.5000000000000000        0.0000000000000000   0.857087  
 Mg   0.2500000000000000        0.7500000000000000   0.433141  
 Mg   0.0000000000000000        0.5000000000000000   0.574456  
 Mg   0.2500000000000000        0.7500000000000000   0.715772  
 Mg   0.0000000000000000        0.5000000000000000   0.857087  
 Mg   0.7500000000000000        0.7500000000000000   0.433141  
 Mg   0.5000000000000000        0.5000000000000000   0.574456  
 Mg   0.7500000000000000        0.7500000000000000   0.715772  
 Mg   0.5000000000000000        0.5000000000000000   0.857087  
 Fe   0.2500000000000000        0.2500000000000000   0	        spin = 2
 Fe   0.0000000000000000        0.0000000000000000   0.0838188  spin = 2
 Fe   0.2500000000000000        0.2500000000000000   0.181685   spin = 2
 Fe   0.0000000000000000        0.0000000000000000   0.265503   spin = 2
 Fe   0.7500000000000000        0.2500000000000000   0	        spin = 2
 Fe   0.5000000000000000        0.0000000000000000   0.0838188  spin = 2
 Fe   0.7500000000000000        0.2500000000000000   0.181685   spin = 2
 Fe   0.5000000000000000        0.0000000000000000   0.265503   spin = 2
 Fe   0.2500000000000000        0.7500000000000000   0	        spin = 2
 Fe   0.0000000000000000        0.5000000000000000   0.0838188  spin = 2
 Fe   0.2500000000000000        0.7500000000000000   0.181685   spin = 2
 Fe   0.0000000000000000        0.5000000000000000   0.265503   spin = 2
 Fe   0.7500000000000000        0.7500000000000000   0	        spin = 2
 Fe   0.5000000000000000        0.5000000000000000   0.0838188  spin = 2
 Fe   0.7500000000000000        0.7500000000000000   0.181685   spin = 2
 Fe   0.5000000000000000        0.5000000000000000   0.265503   spin = 2
%endblock positions_frac
 
symmetry_generate
snap_to_symmetry
 
kpoint_mp_spacing : 0.04
