%BLOCK LATTICE_CART
ang    # angstrom units
  61.712885299999996   0.000000000000000   0.000000000000000
   0.000000000000000   4.171288530000000   0.000000000000000
   0.000000000000000   0.000000000000000   4.171288530000000
%ENDBLOCK LATTICE_CART

%BLOCK POSITIONS_ABS
ang    # angstrom units
Au   0.000000000000000   0.000000000000000   0.000000000000000 
Au  33.370308240000000   0.000000000000000   0.000000000000000 
Au  20.856442649999998   0.000000000000000   0.000000000000000 
Au   8.342577060000000   0.000000000000000   0.000000000000000 
Au  29.199019710000009   0.000000000000000   0.000000000000000 
Au  16.685154120000000   0.000000000000000   0.000000000000000 
Au   4.171288530000000   0.000000000000000   0.000000000000000 
Au  25.027731180000004   0.000000000000000   0.000000000000000 
Au  37.541596769999998   0.000000000000000   0.000000000000000 
Au  12.513865590000002   0.000000000000000   0.000000000000000 
Au   0.000000000000000   2.085644265000000   2.085644265000000 
Au  33.370308240000000   2.085644265000000   2.085644265000000 
Au  20.856442649999998   2.085644265000000   2.085644265000000 
Au   8.342577060000000   2.085644265000000   2.085644265000000 
Au  29.199019710000009   2.085644265000000   2.085644265000000 
Au  16.685154120000000   2.085644265000000   2.085644265000000 
Au   4.171288530000000   2.085644265000000   2.085644265000000 
Au  25.027731180000004   2.085644265000000   2.085644265000000 
Au  37.541596769999998   2.085644265000000   2.085644265000000 
Au  12.513865590000002   2.085644265000000   2.085644265000000 
Au   2.085644265000000   0.000000000000000   2.085644265000000 
Au  35.455952504999999   0.000000000000000   2.085644265000000 
Au  22.942086915000001   0.000000000000000   2.085644265000000 
Au  10.428221324999999   0.000000000000000   2.085644265000000 
Au  31.284663975000004   0.000000000000000   2.085644265000000 
Au  18.770798384999999   0.000000000000000   2.085644265000000 
Au   6.256932795000001   0.000000000000000   2.085644265000000 
Au  27.113375445000010   0.000000000000000   2.085644265000000 
Au  39.627241034999997   0.000000000000000   2.085644265000000 
Au  14.599509855000004   0.000000000000000   2.085644265000000 
Au   2.085644265000000   2.085644265000000   0.000000000000000 
Au  35.455952504999999   2.085644265000000   0.000000000000000 
Au  22.942086915000001   2.085644265000000   0.000000000000000 
Au  10.428221324999999   2.085644265000000   0.000000000000000 
Au  31.284663975000004   2.085644265000000   0.000000000000000 
Au  18.770798384999999   2.085644265000000   0.000000000000000 
Au   6.256932795000001   2.085644265000000   0.000000000000000 
Au  27.113375445000010   2.085644265000000   0.000000000000000 
Au  39.627241034999997   2.085644265000000   0.000000000000000 
Au  14.599509855000004   2.085644265000000   0.000000000000000 
%ENDBLOCK POSITIONS_ABS

kpoints_mp_spacing 0.04
