%BLOCK LATTICE_CART
ang    # angstrom units
  13.622500000000000 -15.847999999999999   0.000000000000000
  13.622500000000000  15.847999999999999   0.000000000000000
   0.000000000000000   0.000000000000000   5.461700000000000
%ENDBLOCK LATTICE_CART

%BLOCK POSITIONS_FRAC
Bi   0.512600000000000   0.597620000000000   0.767800000000000 
Bi   0.487400000000000   0.402380000000000   0.767800000000000 
Bi   0.402380000000000   0.487400000000000   0.232200000000000 
Bi   0.597620000000000   0.512600000000000   0.232200000000000 
Bi   0.619260000000000   0.711620000000000   0.236000000000000 
Bi   0.380740000000000   0.288380000000000   0.236000000000000 
Bi   0.288380000000000   0.380740000000000   0.764000000000000 
Bi   0.711620000000000   0.619260000000000   0.764000000000000 
Bi   0.716430000000000   0.812150000000000   0.767100000000000 
Bi   0.283570000000000   0.187850000000000   0.767100000000000 
Bi   0.187850000000000   0.283570000000000   0.232900000000000 
Bi   0.812150000000000   0.716430000000000   0.232900000000000 
Bi   0.810930000000000   0.909690000000000   0.225100000000000 
Bi   0.189070000000000   0.090310000000000   0.225100000000000 
Bi   0.090310000000000   0.189070000000000   0.774900000000000 
Bi   0.909690000000000   0.810930000000000   0.774900000000000 
Bi   0.901190000000000   0.005890000000000   0.766000000000000 
Bi   0.098810000000000   0.994110000000000   0.766000000000000 
Bi   0.994110000000000   0.098810000000000   0.234000000000000 
Bi   0.005890000000000   0.901190000000000   0.234000000000000 
Sr   0.431900000000000   0.676100000000000   0.248800000000000 
Sr   0.568100000000000   0.323900000000000   0.248800000000000 
Sr   0.323900000000000   0.568100000000000   0.751200000000000 
Sr   0.676100000000000   0.431900000000000   0.751200000000000 
Sr   0.530080000000000   0.785220000000000   0.746500000000000 
Sr   0.469920000000000   0.214780000000000   0.746500000000000 
Sr   0.214780000000000   0.469920000000000   0.253500000000000 
Sr   0.785220000000000   0.530080000000000   0.253500000000000 
Sr   0.624340000000000   0.892400000000000   0.245100000000000 
Sr   0.375660000000000   0.107600000000000   0.245100000000000 
Sr   0.107600000000000   0.375660000000000   0.754900000000000 
Sr   0.892400000000000   0.624340000000000   0.754900000000000 
Sr   0.720090000000000   0.994250000000000   0.741400000000000 
Sr   0.279910000000000   0.005750000000000   0.741400000000000 
Sr   0.005750000000000   0.279910000000000   0.258600000000000 
Sr   0.994250000000000   0.720090000000000   0.258600000000000 
Sr   0.812380000000000   0.091140000000000   0.250000000000000 
Sr   0.187620000000000   0.908860000000000   0.250000000000000 
Sr   0.908860000000000   0.187620000000000   0.750000000000000 
Sr   0.091140000000000   0.812380000000000   0.750000000000000 
Sr   0.689240000000000   0.210160000000000   0.247900000000000 
Sr   0.310760000000000   0.789840000000000   0.247900000000000 
Sr   0.789840000000000   0.310760000000000   0.752100000000000 
Sr   0.210160000000000   0.689240000000000   0.752100000000000 
Sr   0.592940000000000   0.106740000000000   0.747300000000000 
Sr   0.407060000000000   0.893260000000000   0.747300000000000 
Sr   0.893260000000000   0.407060000000000   0.252700000000000 
Sr   0.106740000000000   0.592940000000000   0.252700000000000 
Sr   0.500000000000000   0.000000000000000   0.256000000000000 
Sr   0.000000000000000   0.500000000000000   0.744000000000000 
Fe   0.373000000000000   0.729600000000000   0.750900000000000 spin = 2 
Fe   0.627000000000000   0.270400000000000   0.750900000000000 spin = 2
Fe   0.270400000000000   0.627000000000000   0.249100000000000 spin = 2
Fe   0.729600000000000   0.373000000000000   0.249100000000000 spin = 2
Fe   0.469600000000000   0.836000000000000   0.240000000000000 spin = 2
Fe   0.530400000000000   0.164000000000000   0.240000000000000 spin = 2
Fe   0.164000000000000   0.530400000000000   0.760000000000000 spin = 2
Fe   0.836000000000000   0.469600000000000   0.760000000000000 spin = 2
Fe   0.564300000000000   0.943100000000000   0.730000000000000 spin = 2
Fe   0.435700000000000   0.056900000000000   0.730000000000000 spin = 2
Fe   0.056900000000000   0.435700000000000   0.270000000000000 spin = 2
Fe   0.943100000000000   0.564300000000000   0.270000000000000 spin = 2
Fe   0.656500000000000   0.050100000000000   0.245200000000000 spin = 2
Fe   0.343500000000000   0.949900000000000   0.245200000000000 spin = 2
Fe   0.949900000000000   0.343500000000000   0.754800000000000 spin = 2
Fe   0.050100000000000   0.656500000000000   0.754800000000000 spin = 2
Fe   0.750000000000000   0.150900000000000   0.754000000000000 spin = 2
Fe   0.250000000000000   0.849100000000000   0.754000000000000 spin = 2
Fe   0.849100000000000   0.250100000000000   0.246000000000000 spin = 2
Fe   0.150900000000000   0.749900000000000   0.246000000000000 spin = 2
O    0.455000000000000   0.545000000000000   0.000000000000000 
O    0.545000000000000   0.455000000000000   0.000000000000000 
O    0.537000000000000   0.639000000000000   0.070000000000000 
O    0.463000000000000   0.361000000000000   0.070000000000000 
O    0.361000000000000   0.463000000000000   0.930000000000000 
O    0.639000000000000   0.537000000000000   0.930000000000000 
O    0.643000000000000   0.730000000000000   0.855000000000000 
O    0.357000000000000   0.270000000000000   0.855000000000000 
O    0.270000000000000   0.357000000000000   0.145000000000000 
O    0.730000000000000   0.643000000000000   0.145000000000000 
O    0.723700000000000   0.823900000000000   0.228000000000000 
O    0.276300000000000   0.176100000000000   0.228000000000000 
O    0.176100000000000   0.276300000000000   0.772000000000000 
O    0.823900000000000   0.723700000000000   0.772000000000000 
O    0.816700000000000   0.918300000000000   0.897000000000000 
O    0.183300000000000   0.081700000000000   0.897000000000000 
O    0.081700000000000   0.183300000000000   0.103000000000000 
O    0.918300000000000   0.816700000000000   0.103000000000000 
O    0.905000000000000   0.014400000000000   0.191000000000000 
O    0.095000000000000   0.985600000000000   0.191000000000000 
O    0.985600000000000   0.095000000000000   0.809000000000000 
O    0.014400000000000   0.905000000000000   0.809000000000000 
O    0.443000000000000   0.673400000000000   0.725000000000000 
O    0.557000000000000   0.326600000000000   0.725000000000000 
O    0.326600000000000   0.557000000000000   0.275000000000000 
O    0.673400000000000   0.443000000000000   0.275000000000000 
O    0.559100000000000   0.781300000000000   0.266000000000000 
O    0.440900000000000   0.218700000000000   0.266000000000000 
O    0.218700000000000   0.440900000000000   0.734000000000000 
O    0.781300000000000   0.559100000000000   0.734000000000000 
O    0.648000000000000   0.871600000000000   0.760000000000000 
O    0.352000000000000   0.128400000000000   0.760000000000000 
O    0.128400000000000   0.352000000000000   0.240000000000000 
O    0.871600000000000   0.648000000000000   0.240000000000000 
O    0.738100000000000   0.979100000000000   0.272000000000000 
O    0.261900000000000   0.020900000000000   0.272000000000000 
O    0.020900000000000   0.261900000000000   0.728000000000000 
O    0.979100000000000   0.738100000000000   0.728000000000000 
O    0.835200000000000   0.067800000000000   0.726000000000000 
O    0.164800000000000   0.932200000000000   0.726000000000000 
O    0.932200000000000   0.164800000000000   0.274000000000000 
O    0.067800000000000   0.835200000000000   0.274000000000000 
O    0.334200000000000   0.665800000000000   0.000000000000000 
O    0.665800000000000   0.334200000000000   0.000000000000000 
O    0.424400000000000   0.784400000000000   0.022000000000000 
O    0.575600000000000   0.215600000000000   0.022000000000000 
O    0.215600000000000   0.575600000000000   0.978000000000000 
O    0.784400000000000   0.424400000000000   0.978000000000000 
O    0.532700000000000   0.871900000000000   0.007000000000000 
O    0.467300000000000   0.128100000000000   0.007000000000000 
O    0.128100000000000   0.467300000000000   0.993000000000000 
O    0.871900000000000   0.532700000000000   0.993000000000000 
O    0.612400000000000   0.992400000000000   0.994000000000000 
O    0.387600000000000   0.007600000000000   0.994000000000000 
O    0.007600000000000   0.387600000000000   0.006000000000000 
O    0.992400000000000   0.612400000000000   0.006000000000000 
O    0.716600000000000   0.092000000000000   0.016000000000000 
O    0.283400000000000   0.908000000000000   0.016000000000000 
O    0.908000000000000   0.283400000000000   0.984000000000000 
O    0.092000000000000   0.716600000000000   0.984000000000000 
O    0.803400000000000   0.196600000000000   0.000000000000000 
O    0.196600000000000   0.803400000000000   0.000000000000000 
O    0.324000000000000   0.676000000000000   0.500000000000000 
O    0.676000000000000   0.324000000000000   0.500000000000000 
O    0.427600000000000   0.772600000000000   0.489000000000000 
O    0.572400000000000   0.227400000000000   0.489000000000000 
O    0.227400000000000   0.572400000000000   0.511000000000000 
O    0.772600000000000   0.427600000000000   0.511000000000000 
O    0.521300000000000   0.890100000000000   0.515000000000000 
O    0.478700000000000   0.109900000000000   0.515000000000000 
O    0.109900000000000   0.478700000000000   0.485000000000000 
O    0.890100000000000   0.521300000000000   0.485000000000000 
O    0.619900000000000   0.984900000000000   0.497000000000000 
O    0.380100000000000   0.015100000000000   0.497000000000000 
O    0.015100000000000   0.380100000000000   0.503000000000000 
O    0.984900000000000   0.619900000000000   0.503000000000000 
O    0.704400000000000   0.094000000000000   0.507000000000000 
O    0.295600000000000   0.906000000000000   0.507000000000000 
O    0.906000000000000   0.295600000000000   0.493000000000000 
O    0.094000000000000   0.704400000000000   0.493000000000000 
O    0.810800000000000   0.189200000000000   0.500000000000000 
O    0.189200000000000   0.810800000000000   0.500000000000000 
O    0.694800000000000   0.210000000000000   0.779000000000000 
O    0.305200000000000   0.790000000000000   0.779000000000000 
O    0.790000000000000   0.305200000000000   0.221000000000000 
O    0.210000000000000   0.694800000000000   0.221000000000000 
O    0.584800000000000   0.114000000000000   0.316000000000000 
O    0.415200000000000   0.886000000000000   0.316000000000000 
O    0.886000000000000   0.415200000000000   0.684000000000000 
O    0.114000000000000   0.584800000000000   0.684000000000000 
O    0.500000000000000   0.000000000000000   0.753000000000000 
O    0.000000000000000   0.500000000000000   0.247000000000000 
%ENDBLOCK POSITIONS_FRAC

kpoints_mp_spacing 0.04

