%BLOCK LATTICE_CART
      10.366630000000002       0.000000000000000       0.000000000000000
       0.000000000000000      10.366630000000004       0.000000000000000
       0.000000000000000       0.000000000000000      10.366630000000004
%ENDBLOCK LATTICE_CART

%BLOCK POSITIONS_FRAC
  C   0.1900000000000000    0.0000000000000000    0.0000000000000000
  C   0.1900000000000000    0.5000000000000001    0.5000000000000001
  C   0.6900000000000001    0.0000000000000000    0.5000000000000001
  C   0.6900000000000001    0.5000000000000001    0.0000000000000000
  C  -0.1900000000000000    0.0000000000000000    0.0000000000000000
  C  -0.1900000000000000    0.5000000000000001    0.5000000000000001
  C   0.3100000000000001    0.0000000000000000    0.5000000000000001
  C   0.3100000000000001    0.5000000000000001    0.0000000000000000
  C   0.0000000000000000    0.1900000000000000    0.0000000000000000
  C   0.0000000000000000    0.6900000000000001    0.5000000000000001
  C   0.5000000000000000    0.1900000000000000    0.5000000000000001
  C   0.5000000000000000    0.6900000000000001    0.0000000000000000
  C   0.0000000000000000   -0.1900000000000000    0.0000000000000000
  C   0.0000000000000000    0.3100000000000001    0.5000000000000001
  C   0.5000000000000000   -0.1900000000000000    0.5000000000000001
  C   0.5000000000000000    0.3100000000000001    0.0000000000000000
  C   0.0000000000000000    0.0000000000000000    0.1900000000000000
  C   0.0000000000000000    0.5000000000000001    0.6900000000000001
  C   0.5000000000000000    0.0000000000000000    0.6900000000000001
  C   0.5000000000000000    0.5000000000000001    0.1900000000000000
  C   0.0000000000000000    0.0000000000000000   -0.1900000000000000
  C   0.0000000000000000    0.5000000000000001    0.3100000000000001
  C   0.5000000000000000    0.0000000000000000    0.3100000000000001
  C   0.5000000000000000    0.5000000000000001   -0.1900000000000000
  N   0.3100000000000001    0.0000000000000000    0.0000000000000000
  N   0.3100000000000001    0.5000000000000001    0.5000000000000001
  N   0.8100000000000002    0.0000000000000000    0.5000000000000001
  N   0.8100000000000002    0.5000000000000001    0.0000000000000000
  N  -0.3100000000000001    0.0000000000000000    0.0000000000000000
  N  -0.3100000000000001    0.5000000000000001    0.5000000000000001
  N   0.1900000000000000    0.0000000000000000    0.5000000000000001
  N   0.1900000000000000    0.5000000000000001    0.0000000000000000
  N   0.0000000000000000    0.3100000000000001    0.0000000000000000
  N   0.0000000000000000    0.8100000000000001    0.5000000000000001
  N   0.5000000000000000    0.3100000000000001    0.5000000000000001
  N   0.5000000000000000    0.8100000000000001    0.0000000000000000
  N   0.0000000000000000   -0.3100000000000001    0.0000000000000000
  N   0.0000000000000000    0.1900000000000000    0.5000000000000001
  N   0.5000000000000000   -0.3100000000000001    0.5000000000000001
  N   0.5000000000000000    0.1900000000000000    0.0000000000000000
  N   0.0000000000000000    0.0000000000000000    0.3100000000000001
  N   0.0000000000000000    0.5000000000000001    0.8100000000000001
  N   0.5000000000000000    0.0000000000000000    0.8100000000000001
  N   0.5000000000000000    0.5000000000000001    0.3100000000000001
  N   0.0000000000000000    0.0000000000000000   -0.3100000000000001
  N   0.0000000000000000    0.5000000000000001    0.1900000000000000
  N   0.5000000000000000    0.0000000000000000    0.1900000000000000
  N   0.5000000000000000    0.5000000000000001   -0.3100000000000001
 Na   0.2500000000000000    0.2500000000000001    0.2500000000000001
 Na  -0.2500000000000000   -0.2500000000000001    0.2500000000000001
 Na  -0.2500000000000000    0.2500000000000001   -0.2500000000000001
 Na   0.2500000000000000   -0.2500000000000001   -0.2500000000000001
 Fe   0.0000000000000000    0.0000000000000000    0.0000000000000000 spin = 2
 Fe   0.0000000000000000    0.5000000000000001    0.5000000000000001 spin = 2
 Fe   0.5000000000000000    0.0000000000000000    0.5000000000000001 spin = 2
 Fe   0.5000000000000000    0.5000000000000001    0.0000000000000000 spin = 2
 Co   0.5000000000000000    0.0000000000000000    0.0000000000000000 spin = 1.5
 Co   0.5000000000000000    0.5000000000000001    0.5000000000000001 spin = 1.5
 Co   0.0000000000000000    0.0000000000000000    0.5000000000000001 spin = 1.5
 Co   0.0000000000000000    0.5000000000000001    0.0000000000000000 spin = 1.5
%ENDBLOCK POSITIONS_FRAC

kpoints_mp_spacing 0.04
