# Cell file generated by matador (Matthew Evans 2016)

%BLOCK LATTICE_CART
9.617107 0.0 0.0 
0.0 9.617107 0.0 
0.0 0.0 9.617107 
%ENDBLOCK LATTICE_CART

%BLOCK POSITIONS_FRAC
Ti              0.000000        0.000000        0.000000
Ti              0.155124        0.268778        0.000000
Ti              0.844877        0.268778        0.000000
Ti              0.341665        0.500000        0.000000
Ti              0.658335        0.500000        0.000000
Ti              0.155124        0.731222        0.000000
Ti              0.844877        0.731222        0.000000
Ti              0.268778        0.000000        0.155124
Ti              0.731222        0.000000        0.155124
Ti              0.500000        0.500000        0.268250
Ti              0.000000        0.155124        0.268778
Ti              0.000000        0.844877        0.268778
Ti              0.281422        0.281422        0.281422
Ti              0.718577        0.281422        0.281422
Ti              0.281422        0.718577        0.281422
Ti              0.718577        0.718577        0.281422
Ti              0.500000        0.000000        0.341665
Ti              0.500000        0.268250        0.500000
Ti              0.000000        0.341665        0.500000
Ti              0.268250        0.500000        0.500000
Ti              0.731750        0.500000        0.500000
Ti              0.000000        0.658335        0.500000
Ti              0.500000        0.731750        0.500000
Ti              0.500000        0.000000        0.658335
Ti              0.281422        0.281422        0.718577
Ti              0.718577        0.281422        0.718577
Ti              0.281422        0.718577        0.718577
Ti              0.718577        0.718577        0.718577
Ti              0.000000        0.155124        0.731222
Ti              0.000000        0.844877        0.731222
Ti              0.500000        0.500000        0.731750
Ti              0.268778        0.000000        0.844877
Ti              0.731222        0.000000        0.844877
K               0.500000        0.197945        0.000000
K               0.500000        0.802055        0.000000
K               0.000000        0.500000        0.197945
K               0.197945        0.000000        0.500000
K               0.802055        0.000000        0.500000
K               0.000000        0.500000        0.802055
%ENDBLOCK POSITIONS_FRAC

kpoints_mp_spacing 0.04

