%block lattice_cart
18 0 0
0  18 0
0 0 18
%endblock lattice_cart

%block positions_abs
O     -1.92649    0.41885    0.30394
O      1.19668   -0.04145    0.42587
O      0.10501    1.02169   -2.02618
O     -0.69563   -1.79961   -1.40220
O      1.71889   -0.49832    3.40046
O     -2.90867    0.43623   -2.34864
O     -0.71898   -2.03672    1.58354
O      0.09643    2.56985    1.21862
O     -2.87031    2.81360    1.77031
O     -3.68432   -0.90139    2.38297
O     -1.03513    0.53650    3.06838
O     -2.33220   -0.18777   -5.29366
O      2.14296   -1.47302   -2.09524
O      3.00742    1.68503   -1.26838
O      1.04499   -4.28818   -0.91614
O     -2.46799   -2.87637    4.17314
O     -3.60449   -2.02869   -0.55900
O      0.09771   -5.02625    1.83533
O     -1.82660    3.19850   -1.23096
O      4.04479    2.32811    1.29971
O     -0.50169    2.04744   -4.77630
O      0.62030   -3.01734    4.16721
O      1.03641    3.91377   -1.31397
O     -0.05917    4.74395    3.30585
O     -2.83116   -4.07081    1.42368
O     -1.95301   -4.59576   -1.42835
O      4.42582    0.55234    3.78459
O     -3.64697    0.54645    4.89899
O      0.34718   -0.90354   -4.48374
O     -0.87243   -0.74261    5.71285
O      4.08936   -0.73356    1.06414
O      4.47484   -0.63613   -3.88752
O      5.54620    0.10720   -1.36956
O     -5.99617    0.40549   -1.90442
O     -3.14909    2.78790   -4.08193
O     -0.03565   -3.72767   -3.63321
O     -4.91873    1.10084    0.65651
O     -4.87902   -4.98060   -0.73006
O      2.03245    2.48733    3.55750
O     -2.87841   -2.50202   -3.51261
O     -3.37965   -1.72519    6.87633
O     -1.90347    3.01107    4.66089
O      2.62625   -5.15843    3.79164
O      3.98989   -2.51678    3.68131
O     -5.77826   -2.57671   -2.48894
O      2.38366    1.57586   -4.02819
O      2.27634    4.63515    1.34743
O      2.14566   -2.86754    1.33590
O      2.55471   -0.29343   -6.31312
O      2.74232   -2.95766   -4.73880
O     -5.05301   -0.38069   -4.44543
H     -2.36868    0.50264    1.13163
H     -1.06528    0.74780    0.49737
H      0.89711   -0.40740   -0.38900
H      1.34550    0.86093    0.19837
H      0.50962    1.59451   -2.65556
H     -0.31153    0.37282   -2.56840
H     -0.56254   -2.70217   -1.16686
H     -1.15946   -1.45903   -0.65616
H      2.01446   -0.42500    2.50883
H      2.52319   -0.55746    3.88747
H     -2.73690   -0.33092   -1.82903
H     -2.49669    1.11492   -1.84132
H     -0.26540   -1.23104    1.76743
H     -1.61073   -1.83078    1.80740
H     -0.61053    3.04711    1.61866
H      0.36054    1.98011    1.90516
H     -3.72085    2.45272    1.95485
H     -2.87204    2.87619    0.82986
H     -4.41784   -0.32146    2.49877
H     -3.23889   -0.84575    3.21144
H     -0.41106    0.34990    3.74908
H     -1.69221    1.04595    3.51140
H     -2.14169   -1.11063   -5.32154
H     -2.03115    0.05675   -4.43400
H      1.83425   -2.34312   -1.90657
H      1.37756   -1.05337   -2.45157
H      2.83559    2.39208   -1.86782
H      2.75778    0.92910   -1.77325
H      0.42812   -4.78525   -0.40541
H      0.88285   -4.58099   -1.79665
H     -1.62708   -3.26447    4.00101
H     -2.96070   -3.08065    3.39654
H     -3.48869   -2.96021   -0.47581
H     -3.53704   -1.73405    0.33294
H      0.75992   -5.36144    2.41528
H      0.02115   -4.12381    2.09595
H     -1.17391    2.57602   -0.95615
H     -1.31212    3.95569   -1.45393
H      3.70730    1.51126    0.97267
H      3.97965    2.89776    0.55177
H     -0.85197    2.75342   -4.25932
H     -1.17776    1.91103   -5.41889
H      0.84254   -2.56742    3.36902
H      0.52220   -2.30801    4.77973
H      1.05873    3.21798   -0.67843
H      1.36061    4.65420   -0.82952
H      0.16378    5.30850    2.58523
H      0.75911    4.33298    3.52708
H     -1.99646   -4.28612    1.04190
H     -3.40489   -4.73170    1.07518
H     -1.65993   -4.57136   -2.32366
H     -2.74944   -5.09721   -1.46961
H      4.85032   -0.27889    3.91529
H      4.73577    0.82828    2.93838
H     -3.33766    1.39731    5.15858
H     -3.91660    0.15055    5.71013
H      0.25170   -0.13156   -5.01585
H      1.17110   -1.25436   -4.77669
H     -1.61967   -0.98300    5.19046
H     -1.20889   -0.78065    6.59199
H      4.11852   -1.53185    1.56374
H      3.36435   -0.87772    0.47896
H      5.36733   -0.42488   -3.67138
H      4.05095   -0.59495   -3.04615
H      5.19230    0.94183   -1.11239
H      5.62799   -0.35209   -0.55128
H     -5.13608    0.47545   -2.28281
H     -6.55999    0.47937   -2.65564
H     -3.19087    2.92811   -3.15101
H     -3.51511    1.92645   -4.19412
H      0.62175   -3.58735   -4.29259
H     -0.52727   -2.92332   -3.65103
H     -5.70457    1.26199    0.16290
H     -4.47494    0.44918    0.13960
H     -5.35684   -4.29006   -1.15685
H     -5.49013   -5.69740   -0.72227
H      1.77327    1.72442    4.04573
H      2.95438    2.34503    3.42264
H     -3.73052   -2.86403   -3.33923
H     -2.54284   -2.31713   -2.65162
H     -3.54438   -2.34308    7.56762
H     -3.36871   -2.25697    6.09847
H     -2.09708    3.33196    3.79610
H     -1.25086    3.61963    4.96276
H      2.05089   -4.71025    4.38863
H      2.81746   -5.97272    4.22484
H      4.36401   -3.35379    3.89810
H      3.14287   -2.74952    3.33927
H     -6.12402   -2.08270   -3.21292
H     -5.58007   -1.91284   -1.84958
H      3.02973    1.06844   -4.48919
H      1.77540    1.81258   -4.70756
H      3.02636    4.76390    1.90309
H      1.96608    3.78115    1.59913
H      1.47967   -2.51892    0.76741
H      2.22262   -3.76212    1.05000
H      3.21827   -0.77605   -5.84882
H      2.53159   -0.70341   -7.16060
H      3.13480   -2.42947   -4.06398
H      3.38390   -3.63061   -4.88946
H     -4.21351   -0.60715   -4.08111
H     -4.85181   -0.23649   -5.35432
%endblock positions_abs




kpoints_mp_spacing 0.04
