# Cell file generated by matador (Matthew Evans 2016)

%BLOCK LATTICE_CART
13.2448405222539 -2.00916100661542e-74 -1.58147534218614e-35 
-2.91601221805507e-73 13.2448405222539 3.72453551928891e-36 
-1.54342562446923e-35 3.63607237434897e-36 13.4958842613937 
%ENDBLOCK LATTICE_CART

%BLOCK POSITIONS_FRAC
P              -0.000000       -0.000000        0.500000
P              -0.000000        0.500000        0.250000
P              -0.000000        0.500000        0.750000
P               0.500000       -0.000000        0.250000
P               0.500000       -0.000000        0.750000
P               0.500000        0.500000       -0.000000
K               0.003971        0.767514        0.500000
K               0.267514        0.496029        0.000000
K               0.232486        0.003971        0.500000
K               0.496029        0.732486       -0.000000
K               0.503971        0.267514        0.000000
K               0.767514        0.996029        0.500000
K               0.732486        0.503971        0.000000
K               0.996029        0.232486        0.500000
Sn             -0.000000       -0.000000       -0.000000
Sn              0.500000        0.500000        0.500000
%ENDBLOCK POSITIONS_FRAC


kpoints_mp_spacing 0.04

SYMMETRY_GENERATE

SNAP_TO_SYMMETRY

